3
step 1
H  7.728118623000e-01  4.345296308000e-01 -2.182058240000e-01  2.566177369535e-03  3.195402390194e-03 -1.541294211579e-03
O  7.233000000000e-06 -1.109525743000e-01  5.170433290000e-02 -2.074386581539e-04 -2.573426285444e-04  1.241280177983e-04
H -7.650687486000e-01  4.259563911000e-01 -1.829447985000e-01  7.253257335794e-04  8.889550610330e-04 -4.290502805317e-04
3
step 2
H  7.839010152000e-01  4.484072156000e-01 -2.248985035000e-01  2.475953189660e-03  3.127510954812e-03 -1.507819392144e-03
O -8.912469000000e-04 -1.120719449000e-01  5.224421510000e-02 -2.014911461710e-04 -2.530085846318e-04  1.220053873893e-04
H -7.619018449000e-01  4.298450369000e-01 -1.848215182000e-01  7.209594821971e-04  8.882435438155e-04 -4.286314782923e-04
3
step 3
H  7.944783470000e-01  4.618977443000e-01 -2.314003973000e-01  2.336832338751e-03  3.021424609837e-03 -1.455552003255e-03
O -1.755968700000e-03 -1.131665930000e-01  5.277197330000e-02 -1.923105637269e-04 -2.462209952435e-04  1.186755711012e-04
H -7.587598016000e-01  4.337292017000e-01 -1.866956519000e-01  7.141556290879e-04  8.867872642873e-04 -4.278164821224e-04
3
step 4
H  8.043500860000e-01  4.748469925000e-01 -2.376356971000e-01  2.157552082584e-03  2.882790738063e-03 -1.387301083876e-03
O -2.574111500000e-03 -1.142265669000e-01  5.328271720000e-02 -1.804721885224e-04 -2.373207357181e-04  1.143088397608e-04
H -7.556524368000e-01  4.376051039000e-01 -1.885652397000e-01  7.053003576290e-04  8.843242065004e-04 -4.264911122910e-04
3
step 5
H  8.133585783000e-01  4.871243687000e-01 -2.435403431000e-01  1.945836202978e-03  2.716709976949e-03 -1.305600734725e-03
O -3.335238400000e-03 -1.152433310000e-01  5.377226310000e-02 -1.664867416173e-04 -2.266112035282e-04  1.090565858457e-04
H -7.525878839000e-01  4.414677150000e-01 -1.904277754000e-01  6.947705948639e-04  8.805545795240e-04 -4.245232843469e-04
3
step 6
H  8.213776414000e-01  4.986202832000e-01 -2.490607024000e-01  1.708357245666e-03  2.527669664433e-03 -1.212677572549e-03
O -4.030997800000e-03 -1.162095883000e-01  5.423704570000e-02 -1.507969774424e-04 -2.143550454237e-04  1.030498059020e-04
H -7.495726626000e-01  4.453106302000e-01 -1.922801433000e-01  6.829209886414e-04  8.751567017700e-04 -4.217701399236e-04
3
step 7
H  8.283080112000e-01  5.092434121000e-01 -2.541521996000e-01  1.450792323415e-03  2.319547701452e-03 -1.110453605298e-03
O -4.654827300000e-03 -1.171191016000e-01  5.467402780000e-02 -1.337805498350e-04 -2.007756018771e-04  9.639987304919e-05
H -7.466118028000e-01  4.491260057000e-01 -1.941185868000e-01  6.700727863020e-04  8.678015551485e-04 -4.180846975866e-04
3
step 8
H  8.340731842000e-01  5.189181001000e-01 -2.587780210000e-01  1.177930027823e-03  2.095659203866e-03 -1.000570481434e-03
O -5.201680000000e-03 -1.179665284000e-01  5.508061840000e-02 -1.157563017743e-04 -1.860609570146e-04  8.920063965270e-05
H -7.437090130000e-01  4.529045577000e-01 -1.959387042000e-01  6.565051085838e-04  8.581655702365e-04 -4.133216306139e-04
3
step 9
H  8.386158001000e-01  5.275820334000e-01 -2.629079568000e-01  8.937986649639e-04  1.858824715918e-03 -8.844241794736e-04
O -5.667783500000e-03 -1.187472774000e-01  5.545460160000e-02 -9.699192642621e-05 -1.703691953001e-04  8.153098795838e-05
H -7.408668808000e-01  4.566356110000e-01 -1.977354673000e-01  6.424461869600e-04  8.459423372533e-04 -4.073425739606e-04
3
step 10
H  8.418946063000e-01  5.351842385000e-01 -2.665174092000e-01  6.017973387820e-04  1.611446756690e-03 -7.632033314886e-04
O -6.050433500000e-03 -1.194573892000e-01  5.579407690000e-02 -7.771192987544e-05 -1.538338639141e-04  7.345759556489e-05
H -7.380871174000e-01  4.603072004000e-01 -1.995032634000e-01  6.280674487278e-04  8.308521138008e-04 -4.000204804491e-04
3
step 11
H  8.438819873000e-01  5.416834254000e-01 -2.695865699000e-01  3.048208316019e-04  1.355587148193e-03 -6.379277431703e-04
O -6.347822400000e-03 -1.200934414000e-01  5.609741180000e-02 -5.810535616445e-05 -1.365693162866e-04  6.503749977092e-05
H -7.353708102000e-01  4.639062027000e-01 -2.012359525000e-01  6.134803584270e-04  8.126490608024e-04 -3.912429256237e-04
3
step 12
H  8.445620218000e-01  5.470466632000e-01 -2.720997649000e-01  5.374908333827e-06  1.093041367726e-03 -5.094852637472e-04
O -6.558899900000e-03 -1.206524752000e-01  5.636320480000e-02 -3.833284953314e-05 -1.186757265162e-04  5.632058421492e-05
H -7.327186949000e-01  4.674185014000e-01 -2.029269383000e-01  5.987332592593e-04  7.911272945451e-04 -3.809148366539e-04
3
step 13
H  8.439290218000e-01  5.512483736000e-01 -2.740449557000e-01 -2.943182207486e-04  8.254093119746e-04 -3.786668960584e-04
O -6.683264100000e-03 -1.211319448000e-01  5.659026000000e-02 -1.853321384527e-05 -1.002437518191e-04  4.735189181573e-05
H -7.301314361000e-01  4.708291717000e-01 -2.045692488000e-01  5.838103903171e-04  7.661250371739e-04 -3.689604030255e-04
3
step 14
H  8.419865122000e-01  5.542696261000e-01 -2.754133900000e-01 -5.922232136041e-04  5.541625551293e-04 -2.461999959367e-04
O -6.721079700000e-03 -1.215296847000e-01  5.677757010000e-02  1.170453090707e-06 -8.135889329109e-05  3.817375487206e-05
H -7.276099074000e-01  4.741226816000e-01 -2.061556241000e-01  5.686325676667e-04  7.375267605042e-04 -3.553241324475e-04
3
step 15
H  8.387466156000e-01  5.560977199000e-01 -2.761993940000e-01 -8.864006786596e-04  2.807107476527e-04 -1.127810784826e-04
O -6.673021800000e-03 -1.218438973000e-01  5.692430950000e-02  2.066495431497e-05 -6.210581552954e-05  2.882794344605e-05
H -7.251554661000e-01  4.772830951000e-01 -2.076786068000e-01  5.530588801999e-04  7.052653983999e-04 -3.399719204733e-04
3
step 16
H  8.342298281000e-01  5.567260599000e-01 -2.764003107000e-01 -1.174921509157e-03  6.466319192687e-06  2.089225786939e-05
O -6.540245500000e-03 -1.220731581000e-01  5.702983660000e-02  3.984132564044e-05 -4.257235542592e-05  1.935764004778e-05
H -7.227702190000e-01  4.802942934000e-01 -2.091306386000e-01  5.368908309864e-04  6.693216976873e-04 -3.228907808096e-04
3
step 17
H  8.284651535000e-01  5.561543052000e-01 -2.760165708000e-01 -1.455782835644e-03 -2.670899637206e-04  1.540890873130e-04
O -6.324379700000e-03 -1.222164380000e-01  5.709370370000e-02  5.858928185270e-05 -2.285354010014e-05  9.809428032827e-06
H -7.204572606000e-01  4.831401721000e-01 -2.105041482000e-01  5.198771185701e-04  6.297220194900e-04 -3.040879356822e-04
3
step 18
H  8.214906145000e-01  5.543888184000e-01 -2.750519133000e-01 -1.726825043516e-03 -5.383407339293e-04  2.860116510285e-04
O -6.027544500000e-03 -1.222731441000e-01  5.711567660000e-02  7.679163548368e-05 -3.055837957498e-06  2.353577073543e-07
H -7.182208965000e-01  4.858048428000e-01 -2.117916406000e-01  5.017189987859e-04  5.865379278365e-04 -2.835907152730e-04
3
step 19
H  8.133541133000e-01  5.514434119000e-01 -2.735137501000e-01 -1.985648027198e-03 -8.054609304351e-04  4.157605030868e-04
O -5.652394100000e-03 -1.222431789000e-01  5.709576330000e-02  9.431856931245e-05  1.669854911523e-05 -9.304937285531e-06
H -7.160668355000e-01  4.882728276000e-01 -2.129857839000e-01  4.820780555086e-04  5.398833190543e-04 -2.614453966785e-04
3
step 20
H  8.041146752000e-01  5.473404191000e-01 -2.714136908000e-01 -2.229523371532e-03 -1.066341027969e-03  5.422969548766e-04
O -5.202184900000e-03 -1.221270190000e-01  5.703425130000e-02  1.110215980360e-04  3.626709186571e-05 -1.874201844571e-05
H -7.140023447000e-01  4.905292349000e-01 -2.140794879000e-01  4.605849267474e-04  4.899109203610e-04 -2.377157320389e-04
3
step 21
H  7.938440781000e-01  5.421121121000e-01 -2.687682368000e-01 -2.455304041963e-03 -1.318505151578e-03  6.644031243112e-04
O -4.680870200000e-03 -1.219258141000e-01  5.693175620000e-02  1.267271779709e-04  5.548207010133e-05 -2.799428833618e-05
H -7.120363650000e-01  4.925599230000e-01 -2.150659784000e-01  4.368498408675e-04  4.368089027326e-04 -2.124815863713e-04
3
step 22
H  7.826288864000e-01  5.358024903000e-01 -2.655996552000e-01 -2.659330865857e-03 -1.559024053381e-03  7.806395075384e-04
O -4.093225100000e-03 -1.216415085000e-01  5.678927990000e-02  1.412301384847e-04  7.414529315075e-05 -3.696545366201e-05
H -7.101795744000e-01  4.943516470000e-01 -2.159388643000e-01  4.104733036557e-04  3.807982251355e-04 -1.858379136592e-04
3
step 23
H  7.705728985000e-01  5.284694589000e-01 -2.619370439000e-01 -2.837339397788e-03 -1.784425918076e-03  8.893016044474e-04
O -3.444998500000e-03 -1.212769861000e-01  5.660828030000e-02  1.542869168731e-04  9.202268319473e-05 -4.554189692869e-05
H -7.084444096000e-01  4.958921988000e-01 -2.166922023000e-01  3.810593771590e-04  3.221294942294e-04 -1.578935501007e-04
3
step 24
H  7.577999959000e-01  5.201873983000e-01 -2.578175858000e-01 -2.984375245797e-03 -1.990612521131e-03  9.883790673832e-04
O -2.743096600000e-03 -1.208362396000e-01  5.639075340000e-02  1.656090812121e-04  1.088390962903e-04 -5.359008923982e-05
H -7.068450133000e-01  4.971705265000e-01 -2.173205536000e-01  3.482317971330e-04  2.610793623968e-04 -1.287698245162e-04
3
step 25
H  7.444573319000e-01  5.110500764000e-01 -2.532879709000e-01 -3.094734259480e-03 -2.172795366940e-03  1.075524613579e-03
O -1.995792300000e-03 -1.203245607000e-01  5.613932600000e-02  1.748584393572e-04  1.242742587261e-04 -6.095445562658e-05
H -7.053971149000e-01  4.981768429000e-01 -2.178190368000e-01  3.116507487179e-04  1.979480685293e-04 -9.859977213090e-05
3
step 26
H  7.307187035000e-01  5.011737765000e-01 -2.484059226000e-01 -3.161952853120e-03 -2.325473971863e-03  1.148043484363e-03
O -1.212951400000e-03 -1.197487448000e-01  5.585735530000e-02  1.816451373949e-04  1.379612814381e-04 -6.745637399239e-05
H -7.041178308000e-01  4.989027235000e-01 -2.181833771000e-01  2.710318453503e-04  1.330570199535e-04 -6.752734378719e-05
3
step 27
H  7.167878254000e-01  4.907004000000e-01 -2.432417121000e-01 -3.178879683989e-03 -2.442484989075e-03  1.202917635046e-03
O -4.062584000000e-04 -1.191172940000e-01  5.554903110000e-02  1.855309827812e-04  1.494897683089e-04 -7.289556470572e-05
H -7.030253789000e-01  4.993411937000e-01 -2.184099527000e-01  2.261663784212e-04  6.674685431453e-05 -3.570689856016e-05
3
step 28
H  7.029010743000e-01  4.798001643000e-01 -2.378794730000e-01 -3.137868819464e-03 -2.517158121789e-03  1.236882468780e-03
O  4.105866000000e-04 -1.184405949000e-01  5.521946340000e-02  1.860407164986e-04  1.584159409972e-04 -7.705508216367e-05
H -7.021387020000e-01  4.994868095000e-01 -2.184958398000e-01  1.769417634887e-04 -6.238723092416e-07 -3.302988919430e-06
3
step 29
H  6.893290726000e-01  4.686733407000e-01 -2.324180442000e-01 -3.031142567010e-03 -2.542621111448e-03  1.246576839444e-03
O  1.221740200000e-03 -1.177310333000e-01  5.487474020000e-02  1.826839585662e-04  1.642824223506e-04 -7.971130706109e-05
H -7.014770031000e-01  4.993357343000e-01 -2.184388564000e-01  1.233609808637e-04 -6.867921564539e-05  2.950947471392e-05
3
step 30
H  6.763762579000e-01  4.575502843000e-01 -2.269709719000e-01 -2.851372109132e-03 -2.512298057583e-03  1.228787391426e-03
O  2.009211000000e-03 -1.170029980000e-01  5.452192840000e-02  1.749907340758e-04  1.666502198951e-04 -8.064992670773e-05
H -7.010591990000e-01  4.988858139000e-01 -2.182376093000e-01  6.555895360649e-05 -1.370254501191e-04  6.254468915689e-05
3
step 31
H  6.643773851000e-01  4.466888107000e-01 -2.216652144000e-01 -2.592516502017e-03 -2.420636577092e-03  1.180804002824e-03
O  2.753043000000e-03 -1.162727164000e-01  5.416899160000e-02  1.625633178024e-04  1.651448063772e-04 -7.968846105862e-05
H -7.009033121000e-01  4.981366568000e-01 -2.178915426000e-01  3.815803510365e-06 -2.052516173765e-04  9.560583047582e-05
3
step 32
H  6.536897550000e-01  4.363678624000e-01 -2.166380335000e-01 -2.250921176057e-03 -2.264059378183e-03  1.100885107056e-03
O  3.431764400000e-03 -1.155578546000e-01  5.382459340000e-02  1.451447722110e-04  1.595156162763e-04 -7.670522018221e-05
H -7.010258078000e-01  4.970897052000e-01 -2.174009851000e-01 -6.143801563251e-05 -2.729290874660e-04  1.284847111592e-04
3
step 33
H  6.446801028000e-01  4.268765590000e-01 -2.120316275000e-01 -1.826593083786e-03 -2.042057376223e-03  9.887929237693e-04
O  4.023170800000e-03 -1.148768327000e-01  5.349776230000e-02  1.226994387053e-04  1.497039895786e-04 -7.167221109748e-05
H -7.014409418000e-01  4.957483185000e-01 -2.167672030000e-01 -1.296272992577e-04 -3.396104115102e-04  1.609612361651e-04
3
step 34
H  6.377056681000e-01  4.184982980000e-01 -2.079853390000e-01 -1.324454199427e-03 -1.758235897127e-03  8.463067762459e-04
O  4.505478300000e-03 -1.142478302000e-01  5.319740670000e-02  9.549283921229e-05  1.359085054927e-04 -6.468698870336e-05
H -7.021601459000e-01  4.941178543000e-01 -2.159924511000e-01 -2.000473912620e-04 -4.048297376689e-04  1.928039194478e-04
3
step 35
H  6.330901153000e-01  4.114906498000e-01 -2.046257958000e-01 -7.552568582837e-04 -1.421026130575e-03  6.775737167484e-04
O  4.858806300000e-03 -1.136875293000e-01  5.293170160000e-02  6.415125040246e-05  1.186298973803e-04 -5.599487555020e-05
H -7.031915095000e-01  4.922057485000e-01 -2.150800213000e-01 -2.718909930883e-04 -4.681040910280e-04  2.237709901462e-04
3
step 36
H  6.310965928000e-01  4.060632322000e-01 -2.020560506000e-01 -1.357869389790e-04 -1.043742587850e-03  4.891397649294e-04
O  5.066850900000e-03 -1.132097279000e-01  5.270740880000e-02  2.967691150275e-05  9.867531295461e-05 -4.599153532911e-05
H -7.045394001000e-01  4.900215854000e-01 -2.140342838000e-01 -3.442831869488e-04 -5.289372406895e-04  2.536130117841e-04
3
step 37
H  6.319018757000e-01  4.023571036000e-01 -2.003454486000e-01  5.119373967750e-04 -6.437628718364e-04  2.895514603845e-04
O  5.118501900000e-03 -1.128240448000e-01  5.252924050000e-02 -6.599720100287e-06  7.710743415773e-05 -3.519846758595e-05
H -7.062042508000e-01  4.875771430000e-01 -2.128607134000e-01 -4.163227990657e-04 -5.868258432343e-04  2.820766030871e-04
3
step 38
H  6.355764367000e-01  4.004298146000e-01 -1.995222538000e-01  1.162520074611e-03 -2.408388281158e-04  8.853101591514e-05
O  5.009098300000e-03 -1.125349788000e-01  5.239939530000e-02 -4.313437714303e-05  5.513891839030e-05 -2.421153336481e-05
H -7.081825431000e-01  4.848864103000e-01 -2.115658977000e-01 -4.871222041907e-04 -6.412713548236e-04  3.089108739915e-04
3
step 39
H  6.420748157000e-01  4.002495796000e-01 -1.995707345000e-01  1.789806677326e-03  1.451621878311e-04 -1.041297160521e-04
O  4.741043100000e-03 -1.123415371000e-01  5.231737110000e-02 -7.833189395496e-05  3.399092973773e-05 -1.363172240424e-05
H -7.104669427000e-01  4.819655280000e-01 -2.101575069000e-01 -5.558427327954e-04 -6.917941328234e-04  3.338747758592e-04
3
step 40
H  6.512386144000e-01  4.017000948000e-01 -2.004334685000e-01  2.369689360774e-03  4.965518574289e-04 -2.796958558177e-04
O  4.323634300000e-03 -1.122375322000e-01  5.228010720000e-02 -1.107211991583e-04  1.474934811388e-05 -3.994581021918e-06
H -7.130465923000e-01  4.788326824000e-01 -2.086442379000e-01 -6.217252512540e-04 -7.379483236451e-04  3.567447030979e-04
3
step 41
H  6.628114105000e-01  4.045947883000e-01 -2.020182872000e-01  2.882447764622e-03  7.996014016166e-04 -4.313670379674e-04
O  3.772147900000e-03 -1.122124690000e-01  5.228241540000e-02 -1.391017714343e-04 -1.746334167462e-06  4.284498530297e-06
H -7.159075144000e-01  4.755079156000e-01 -2.070357178000e-01 -6.841102195189e-04 -7.793397034718e-04  3.773232055432e-04
3
step 42
H  6.764622376000e-01  4.086972188000e-01 -2.042082600000e-01  3.314160180392e-03  1.045465166380e-03 -5.547365986524e-04
O  3.106387400000e-03 -1.122528140000e-01  5.231759990000e-02 -1.626319198042e-04 -1.495996741279e-05  1.093847674370e-05
H -7.190330801000e-01  4.720128637000e-01 -2.053423712000e-01 -7.424478113779e-04 -8.156416220067e-04  3.954466312181e-04
3
step 43
H  6.918128476000e-01  4.137434083000e-01 -2.068726568000e-01  3.657046159219e-03  1.230197892099e-03 -6.478067285500e-04
O  2.348994200000e-03 -1.123433802000e-01  5.237813550000e-02 -1.808500937662e-04 -2.465848857127e-05  1.584886340699e-05
H -7.224045007000e-01  4.683704274000e-01 -2.035752573000e-01 -7.962996834432e-04 -8.466080756163e-04  4.109912149438e-04
3
step 44
H  7.084641893000e-01  4.194623915000e-01 -2.098770645000e-01  3.908915236626e-03  1.354074165052e-03 -7.106606021021e-04
O  1.523810700000e-03 -1.124685946000e-01  5.245628960000e-02 -1.936400886235e-04 -3.086794336559e-05  1.902466344710e-05
H -7.260013115000e-01  4.646043954000e-01 -2.017458836000e-01 -8.453309484240e-04 -8.720844492477e-04  4.238778962046e-04
3
step 45
H  7.260188464000e-01  4.255925932000e-01 -2.130914808000e-01  4.072061502316e-03  1.420532678863e-03 -7.449481001952e-04
O  6.544953000000e-04 -1.126134983000e-01  5.254461580000e-02 -2.011618172514e-04 -3.380679040927e-05  2.057014203339e-05
H -7.298017932000e-01  4.607390213000e-01 -1.998660014000e-01 -8.892965306054e-04 -8.920135821844e-04  4.340748286419e-04
3
step 46
H  7.440978427000e-01  4.318931392000e-01 -2.163959303000e-01  4.151954672333e-03  1.435048237132e-03 -7.533327476601e-04
O -2.365091000000e-04 -1.127644299000e-01  5.263629410000e-02 -2.037700143481e-04 -3.381564906329e-05  2.065060585523e-05
H -7.337833365000e-01  4.567985941000e-01 -1.979473968000e-01 -9.280244038856e-04 -9.064366822522e-04  4.415974349073e-04
3
step 47
H  7.623516263000e-01  4.381503632000e-01 -2.196837187000e-01  4.156000288892e-03  1.404139808164e-03 -7.390033216877e-04
O -1.128648200000e-03 -1.129094111000e-01  5.272532440000e-02 -2.019379505335e-04 -3.129593794415e-05  1.946216576578e-05
H -7.379227168000e-01  4.528070069000e-01 -1.960016860000e-01 -9.613956163793e-04 -9.154908666050e-04  4.465068570835e-04
3
step 48
H  7.804660248000e-01  4.441804368000e-01 -2.228627747000e-01  4.092525477632e-03  1.334611597035e-03 -7.052995622700e-04
O -2.003620700000e-03 -1.130382932000e-01  5.280660290000e-02 -1.961952800690e-04 -2.666273847373e-05  1.720841539252e-05
H -7.421962836000e-01  4.487873486000e-01 -1.940401202000e-01 -9.893256223360e-04 -9.194021040569e-04  4.489062907191e-04
3
step 49
H  7.981643552000e-01  4.498292357000e-01 -2.258556294000e-01  3.970032672288e-03  1.233036350206e-03 -6.554569853686e-04
O -2.845507000000e-03 -1.131427305000e-01  5.287591120000e-02 -1.870820151676e-04 -2.031251427321e-05  1.408436397065e-05
H -7.465800728000e-01  4.447615351000e-01 -1.920734125000e-01 -1.011748480093e-03 -9.184744594506e-04  4.489357007190e-04
3
step 50
H  8.152068480000e-01  4.549704482000e-01 -2.285985248000e-01  3.796697432322e-03  1.105445165493e-03 -5.924526015477e-04
O -3.640731500000e-03 -1.132160433000e-01  5.292985180000e-02 -1.751172464428e-04 -1.260361115367e-05  1.026676861696e-05
H -7.510498569000e-01  4.407499944000e-01 -1.901115894000e-01 -1.028604889691e-03 -9.130767599667e-04  4.467654219046e-04
3
step 51
H  8.313883624000e-01  4.595027266000e-01 -2.310400430000e-01  3.580067404096e-03  9.571747191452e-04 -5.189273821812e-04
O -4.377916900000e-03 -1.132530217000e-01  5.296575330000e-02 -1.607802874148e-04 -3.847032779853e-06  5.909627295281e-06
H -7.555811526000e-01  4.367714149000e-01 -1.881638732000e-01 -1.039834508979e-03 -9.036276889977e-04  4.425891196286e-04
3
step 52
H  8.465351767000e-01  4.633464593000e-01 -2.331395364000e-01  3.326917208989e-03  7.928250066781e-04 -4.371629563476e-04
O -5.047682000000e-03 -1.132497078000e-01  5.298156560000e-02 -1.445016878673e-04  5.695392312502e-06  1.143241755628e-06
H -7.601492043000e-01  4.328425608000e-01 -1.862385960000e-01 -1.045372443059e-03 -8.905803177868e-04  4.366164944129e-04
3
step 53
H  8.605014332000e-01  4.664405519000e-01 -2.348655533000e-01  3.043213347037e-03  6.162882454925e-04 -3.490941537334e-04
O -5.642417200000e-03 -1.132031827000e-01  5.297575750000e-02 -1.266610854639e-04  1.580807154503e-05 -3.924424870265e-06
H -7.647289612000e-01  4.289781558000e-01 -1.843431449000e-01 -1.045149596257e-03 -8.744068564751e-04  4.290661877123e-04
3
step 54
H  8.731656217000e-01  4.687394530000e-01 -2.361943773000e-01  2.734149201875e-03  4.308187247660e-04 -2.563425239880e-04
O -6.156063400000e-03 -1.131113750000e-01  5.294722390000e-02 -1.075894044135e-04  2.631610363869e-05 -9.205174579652e-06
H -7.692950629000e-01  4.251908319000e-01 -1.824839386000e-01 -1.039096315237e-03 -8.555842187926e-04  4.201591219248e-04
3
step 55
H  8.844273305000e-01  4.702105454000e-01 -2.371087465000e-01  2.404220055890e-03  2.391213051435e-04 -1.602595420887e-04
O -6.583906800000e-03 -1.129728966000e-01  5.289520520000e-02 -8.757335336207e-05  3.707867804802e-05 -1.462749362529e-05
H -7.738218489000e-01  4.214911393000e-01 -1.806664311000e-01 -1.027148601021e-03 -8.345810220516e-04  4.101125351992e-04
3
step 56
H  8.942043866000e-01  4.708319473000e-01 -2.375967709000e-01  2.057318099054e-03  4.344440260756e-05 -6.197208550786e-05
O -6.922397300000e-03 -1.127869082000e-01  5.281922210000e-02 -6.686098833529e-05  4.798246068232e-05 -2.013337565037e-05
H -7.782833990000e-01  4.178876094000e-01 -1.788951401000e-01 -1.009255491208e-03 -8.118465892517e-04  3.991349990135e-04
3
step 57
H  9.024304378000e-01  4.705907172000e-01 -2.376510496000e-01  1.696835670191e-03 -1.543300765280e-04  3.757354677947e-05
O -7.168991600000e-03 -1.125530134000e-01  5.271902270000e-02 -4.566759565259e-05  5.893529045679e-05 -2.567535966175e-05
H -7.826536066000e-01  4.143868605000e-01 -1.771736945000e-01 -9.853885357157e-04 -7.878013133503e-04  3.874221122656e-04
3
step 58
H  9.090529968000e-01  4.694814411000e-01 -2.372679737000e-01  1.325769851251e-03 -3.526031314995e-04  1.375705818844e-04
O -7.322023600000e-03 -1.122711793000e-01  5.259454310000e-02 -2.418172111429e-05  6.986054321386e-05 -3.121372341824e-05
H -7.869063025000e-01  4.109937452000e-01 -1.755049002000e-01 -9.555504040234e-04 -7.628297367251e-04  3.751534386840e-04
3
step 59
H  9.140319383000e-01  4.675051700000e-01 -2.364472018000e-01  9.468255943005e-04 -5.499821754954e-04  2.373141351523e-04
O -7.380600200000e-03 -1.119416802000e-01  5.244587880000e-02 -2.571144336394e-06  8.069200759984e-05 -3.671401964599e-05
H -7.910154037000e-01  4.077115167000e-01 -1.738908149000e-01 -9.197825827900e-04 -7.372758567275e-04  3.624904635780e-04
3
step 60
H  9.173384451000e-01  4.646686763000e-01 -2.351912934000e-01  5.625182908362e-04 -7.452093116421e-04  3.361657618339e-04
O -7.344523100000e-03 -1.115650625000e-01  5.227326730000e-02  1.901106006508e-05  9.136925918361e-05 -4.214476766894e-05
H -7.949551038000e-01  4.045420174000e-01 -1.723328313000e-01 -8.781716701580e-04 -7.114408950205e-04  3.495756796315e-04
3
step 61
H  9.189544037000e-01  4.609840184000e-01 -2.335054942000e-01  1.752757422991e-04 -9.370955330425e-04  4.335207605151e-04
O -7.214238800000e-03 -1.111421293000e-01  5.207707980000e-02  4.042064870196e-05  1.018334871073e-04 -4.747540558781e-05
H -7.987000776000e-01  4.014858646000e-01 -1.708317603000e-01 -8.308572744924e-04 -6.855822325286e-04  3.365322257923e-04
3
step 62
H  9.188722420000e-01  4.564683735000e-01 -2.313976551000e-01 -2.124591060512e-04 -1.124457039202e-03  5.287764684608e-04
O -6.990811500000e-03 -1.106739416000e-01  5.185782120000e-02  6.151601566977e-05  1.120234121573e-04 -5.267426531434e-05
H -8.022257406000e-01  3.985426484000e-01 -1.693879169000e-01 -7.780370790802e-04 -6.599126323632e-04  3.234636358652e-04
3
step 63
H  9.170952240000e-01  4.511441590000e-01 -2.288782956000e-01 -5.981229309087e-04 -1.306052978612e-03  6.213010917687e-04
O -6.675926600000e-03 -1.101618387000e-01  5.161613970000e-02  8.215175196797e-05  1.218715202367e-04 -5.770668016531e-05
H -8.055084973000e-01  3.957111242000e-01 -1.680012060000e-01 -7.199694704725e-04 -6.346026990364e-04  3.104550269794e-04
3
step 64
H  9.136382087000e-01  4.450394107000e-01 -2.259607952000e-01 -9.789172889538e-04 -1.480519904773e-03  7.104008899527e-04
O -6.271920900000e-03 -1.096074725000e-01  5.135284360000e-02  1.021715969734e-04  1.313000672859e-04 -6.253300560701e-05
H -8.085260243000e-01  3.929893892000e-01 -1.666711979000e-01 -6.569762536752e-04 -6.097823000502e-04  2.975738080982e-04
3
step 65
H  9.085289488000e-01  4.381884772000e-01 -2.226617443000e-01 -1.351689815811e-03 -1.646306337335e-03  7.952873650975e-04
O -5.781847000000e-03 -1.090128627000e-01  5.106892800000e-02  1.214010607996e-04  1.402171024874e-04 -6.710661257357e-05
H -8.112575422000e-01  3.903750626000e-01 -1.653972075000e-01 -5.894441331628e-04 -5.855432993727e-04  2.848709690491e-04
3
step 66
H  9.018098888000e-01  4.306329708000e-01 -2.190014224000e-01 -1.712808413052e-03 -1.801605929094e-03  8.750437242195e-04
O -5.209568700000e-03 -1.083804656000e-01  5.076560940000e-02  1.396396306926e-04  1.485125508942e-04 -7.137188078526e-05
H -8.136841114000e-01  3.878654374000e-01 -1.641783589000e-01 -5.178266967047e-04 -5.619431274110e-04  2.723828083725e-04
3
step 67
H  8.935405647000e-01  4.224230470000e-01 -2.150044422000e-01 -2.058020949601e-03 -1.944281682897e-03  9.485869671530e-04
O -4.559893400000e-03 -1.077132643000e-01  5.044436950000e-02  1.566519078058e-04  1.560534687014e-04 -7.526185381065e-05
H -8.157889219000e-01  3.854576303000e-01 -1.630136495000e-01 -4.426436200062e-04 -5.390057180725e-04  2.601313264306e-04
3
step 68
H  8.838006310000e-01  4.136190186000e-01 -2.107005607000e-01 -2.382309098518e-03 -2.071788458990e-03  1.014628964239e-03
O -3.838744600000e-03 -1.070148784000e-01  5.010701060000e-02  1.721584102898e-04  1.626792802347e-04 -7.869573414281e-05
H -8.175575817000e-01  3.831487250000e-01 -1.619020108000e-01 -3.644798667785e-04 -5.167227018033e-04  2.481247693596e-04
3
step 69
H  8.726935375000e-01  4.042933130000e-01 -2.061256626000e-01 -2.679742096071e-03 -2.181096021749e-03  1.071637364887e-03
O -3.053375600000e-03 -1.062896961000e-01  4.975572160000e-02  1.858263352429e-04  1.681968046704e-04 -8.157633713616e-05
H -8.189783996000e-01  3.809359114000e-01 -1.608423680000e-01 -2.839858075855e-04 -4.950530307637e-04  2.363574782256e-04
3
step 70
H  8.603508375000e-01  3.945327597000e-01 -2.013229139000e-01 -2.943346554259e-03 -2.268620817071e-03  1.117800514925e-03
O -2.212622000000e-03 -1.055430276000e-01  4.939315520000e-02  1.972613217175e-04  1.723757581432e-04 -8.378771864249e-05
H -8.200426748000e-01  3.788166322000e-01 -1.598337021000e-01 -2.018760679442e-04 -4.739213104030e-04  2.248090159585e-04
3
step 71
H  8.469370034000e-01  3.844411452000e-01 -1.963440529000e-01 -3.165020516329e-03 -2.330181327136e-03  1.151004391193e-03
O -1.327188100000e-03 -1.047812764000e-01  4.902251500000e-02  2.060018374957e-04  1.749455174579e-04 -8.519354772467e-05
H -8.207449697000e-01  3.767887373000e-01 -1.588751171000e-01 -1.189271468191e-04 -4.532147551539e-04  2.134427137643e-04
3
step 72
H  8.326544865000e-01  3.741418904000e-01 -1.912507449000e-01 -3.335530782723e-03 -2.360998033838e-03  1.168832546684e-03
O -4.099484000000e-04 -1.040121205000e-01  4.864764650000e-02  2.115188636893e-04  1.755946995542e-04 -8.563705180430e-05
H -8.210833784000e-01  3.748506564000e-01 -1.579659150000e-01 -3.597602245805e-05 -4.327781648721e-04  2.022033079036e-04
3
step 73
H  8.177485571000e-01  3.637806061000e-01 -1.861158739000e-01 -3.444646056009e-03 -2.355766102718e-03  1.168603035323e-03
O  5.237637000000e-04 -1.032446884000e-01  4.827312530000e-02  2.132241728723e-04  1.739754308482e-04 -8.494345302012e-05
H -8.210597874000e-01  3.730015973000e-01 -1.571056834000e-01  4.608188628647e-05 -4.124075071112e-04  1.910138405337e-04
3
step 74
H  8.025111982000e-01  3.535271348000e-01 -1.810245743000e-01 -3.481474973038e-03 -2.308837597883e-03  1.147461011863e-03
O  1.455926300000e-03 -1.024897024000e-01  4.790432630000e-02  2.104915249426e-04  1.697148525122e-04 -8.292603855440e-05
H -8.206801266000e-01  3.712417752000e-01 -1.562943978000e-01  1.262952065972e-04 -3.918423657834e-04  1.797720988772e-04
3
step 75
H  7.872829876000e-01  3.435765108000e-01 -1.760747122000e-01 -3.435089693849e-03 -2.214555930487e-03  1.102548061086e-03
O  2.365725600000e-03 -1.017595536000e-01  4.754745900000e-02  2.026957402766e-04  1.624363300483e-04 -7.939695283218e-05
H -8.199546077000e-01  3.695726768000e-01 -1.555325400000e-01  2.036599851113e-04 -3.707581292710e-04  1.683469401148e-04
3
step 76
H  7.724515354000e-01  3.341480761000e-01 -1.713764352000e-01 -3.295515332879e-03 -2.067786290060e-03  1.031269561850e-03
O  3.229669100000e-03 -1.010682602000e-01  4.720954230000e-02  1.892746965947e-04  1.517926572429e-04 -7.418373550385e-05
H -8.188979459000e-01  3.679973579000e-01 -1.548212333000e-01  2.771249263197e-04 -3.487592618716e-04  1.565750962361e-04
3
step 77
H  7.584447072000e-01  3.254817988000e-01 -1.670503145000e-01 -3.055129448017e-03 -1.864668086150e-03  9.316732048548e-04
O  4.022024000000e-03 -1.004312517000e-01  4.689829450000e-02  1.698168961615e-04  1.375127126584e-04 -6.715249199070e-05
H -8.175295526000e-01  3.665207664000e-01 -1.541623882000e-01  3.455997758337e-04 -3.253752675800e-04  1.442591170763e-04
3
step 78
H  7.457168154000e-01  3.178308038000e-01 -1.632235819000e-01 -2.710412589272e-03 -1.603560570786e-03  8.029237122752e-04
O  4.715696900000e-03 -9.986491880000e-02  4.662190660000e-02  1.441709053605e-04  1.194600876503e-04 -5.823698351284e-05
H -8.158736835000e-01  3.651500754000e-01 -1.535588556000e-01  4.079679227122e-04 -3.000609643495e-04  1.311672331859e-04
3
step 79
H  7.347265235000e-01  3.114494170000e-01 -1.600241178000e-01 -2.263824582712e-03 -1.286061661398e-03  6.458142764731e-04
O  5.283629800000e-03 -9.938588450000e-02  4.638867640000e-02  1.125624141728e-04  9.769706705838e-05 -4.747066543083e-05
H -8.139595212000e-01  3.638950034000e-01 -1.530145745000e-01  4.631044184571e-04 -2.722023578643e-04  1.170358196147e-04
3
step 80
H  7.259066183000e-01  3.065767804000e-01 -1.575722129000e-01 -1.725388044588e-03 -9.178738262524e-04  4.632034817956e-04
O  5.700704100000e-03 -9.900999470000e-02  4.620650190000e-02  7.569240816539e-05  7.254014435312e-05 -3.501484935478e-05
H -8.118211655000e-01  3.627680965000e-01 -1.525347027000e-01  5.099035631734e-04 -2.411306106039e-04  1.015753382498e-04
3
step 81
H  7.196280581000e-01  3.034173188000e-01 -1.559707329000e-01 -1.113416925630e-03 -5.092145034209e-04  2.602245617072e-04
O  5.945996200000e-03 -9.875110270000e-02  4.608226970000e-02  3.478076696450e-05  4.458792776699e-05 -2.117299675172e-05
H -8.094974749000e-01  3.617849261000e-01 -1.521257126000e-01  5.473160268942e-04 -2.061441701938e-04  8.447993240491e-05
3
step 82
H  7.161633684000e-01  3.021207639000e-01 -1.552950489000e-01 -4.538683802903e-04 -7.448872369454e-05  4.412124857080e-05
O  6.005062500000e-03 -9.861981630000e-02  4.602122200000e-02 -8.477581053498e-06  1.470292931533e-05 -6.381622598083e-06
H -8.070317316000e-01  3.609641773000e-01 -1.517954386000e-01  5.743973070587e-04 -1.665397655526e-04  6.544085193264e-05
3
step 83
H  7.156563625000e-01  3.027654855000e-01 -1.555846382000e-01  2.218947976186e-04  3.688984427287e-04 -1.763519224897e-04
O  5.871810900000e-03 -9.862244090000e-02  4.602642560000e-02 -5.205747809990e-05 -1.606055689769e-05  8.826382556248e-06
H -8.044710590000e-01  3.603275757000e-01 -1.515530551000e-01  5.903676227038e-04 -1.216525633811e-04  4.416394198079e-05
3
step 84
H  7.181051176000e-01  3.053489075000e-01 -1.568382631000e-01  8.806312585339e-04  8.024389455177e-04 -3.918871664377e-04
O  5.549519700000e-03 -9.876035840000e-02  4.609845960000e-02 -9.383006345323e-05 -4.657319418641e-05  2.388092455711e-05
H -8.018655632000e-01  3.598996243000e-01 -1.514089703000e-01  5.946799176608e-04 -7.090381199628e-05  2.039049145532e-05
3
step 85
H  7.233625597000e-01  3.097874402000e-01 -1.590139508000e-01  1.491221698211e-03  1.208695836119e-03 -5.937199055989e-04
O  5.050726100000e-03 -9.902999190000e-02  4.623540190000e-02 -1.318191167603e-04 -7.576458928285e-05  3.824262199356e-05
H -7.992671547000e-01  3.597071132000e-01 -1.513746227000e-01  5.870875666363e-04 -1.385199114517e-05 -6.080355224930e-06
3
step 86
H  7.311544483000e-01  3.159259207000e-01 -1.620337665000e-01  2.028133016549e-03  1.573209359383e-03 -7.745892662520e-04
O  4.396001600000e-03 -9.942335650000e-02  4.643311180000e-02 -1.644230271998e-04 -1.027404066684e-04  5.146208787178e-05
H -7.967280978000e-01  3.597784088000e-01 -1.514621781000e-01  5.677023450001e-04  4.975703466637e-05 -3.536938292778e-05
3
step 87
H  7.411102753000e-01  3.235542257000e-01 -1.657921994000e-01  2.473561787323e-03  1.885703280093e-03 -9.293445901701e-04
O  3.611898800000e-03 -9.992904910000e-02  4.668573460000e-02 -1.905526145750e-04 -1.268554227579e-04  6.321679953418e-05
H -7.942993249000e-01  3.601425253000e-01 -1.516841318000e-01  5.370372044740e-04  1.199445024386e-04 -6.749697387113e-05
3
step 88
H  7.528000063000e-01  3.324272671000e-01 -1.701662427000e-01  2.817981561186e-03  2.140429154575e-03 -1.055115440328e-03
O  2.728520400000e-03 -1.005334385000e-01  4.698630720000e-02 -2.096667330578e-04 -1.477325139534e-04  7.332043727153e-05
H -7.920286114000e-01  3.608280149000e-01 -1.520528283000e-01  4.960246989493e-04  1.964642119837e-04 -1.023673787125e-04
3
step 89
H  7.657697698000e-01  3.422846183000e-01 -1.750252668000e-01  3.059341326611e-03  2.335769839650e-03 -1.151107509034e-03
O  1.777154500000e-03 -1.012218216000e-01  4.732734450000e-02 -2.217211945117e-04 -1.652358292758e-04  8.170889697444e-05
H -7.899587293000e-01  3.618617374000e-01 -1.525799247000e-01  4.460100776620e-04  2.787820705711e-04 -1.397590351097e-04
3
step 90
H  7.795715835000e-01  3.528670402000e-01 -1.802393140000e-01  3.201447031970e-03  2.473381515085e-03 -1.218168850137e-03
O  7.882904000000e-04 -1.019793784000e-01  4.770132260000e-02 -2.270645124648e-04 -1.794163768367e-04  8.841263997955e-05
H -7.881256820000e-01  3.632675713000e-01 -1.532758267000e-01  3.887170436155e-04  3.660733365973e-04 -1.793225610394e-04
3
step 91
H  7.937848806000e-01  3.639285989000e-01 -1.856851762000e-01  3.252083189771e-03  2.557176492521e-03 -1.258279226539e-03
O -2.098337000000e-04 -1.027918522000e-01  4.810102270000e-02 -2.263157962141e-04 -1.904495378731e-04  9.352526724577e-05
H -7.865571577000e-01  3.650651592000e-01 -1.541491343000e-01  3.261882753523e-04  4.572388010282e-04 -2.205870491036e-04
3
step 92
H  8.080297994000e-01  3.752442909000e-01 -1.912502199000e-01  3.221280836099e-03  2.592373789924e-03 -1.274073831833e-03
O -1.192146000000e-03 -1.036459576000e-01  4.851974020000e-02 -2.202507493649e-04 -1.985783219949e-04  9.717516983301e-05
H -7.852712851000e-01  3.672687606000e-01 -1.552061322000e-01  2.607066361287e-04  5.509385033080e-04 -2.629741818672e-04
3
step 93
H  8.219735524000e-01  3.866138528000e-01 -1.968342969000e-01  3.119945019764e-03  2.584739211734e-03 -1.268461705383e-03
O -2.137196300000e-03 -1.045295644000e-01  4.895137980000e-02 -2.097094036126e-04 -2.040691881900e-04  9.950334569892e-05
H -7.842757752000e-01  3.698862926000e-01 -1.564503596000e-01  1.947008918728e-04  6.456414687253e-04 -3.058195054263e-04
3
step 94
H  8.353317053000e-01  3.978627364000e-01 -2.023502303000e-01  2.958891640798e-03  2.540045665773e-03 -1.244354460042e-03
O -3.027263700000e-03 -1.054317191000e-01  4.939047060000e-02 -1.955290023246e-04 -2.071817754714e-04  1.006480136156e-04
H -7.835675033000e-01  3.729186174000e-01 -1.578822868000e-01  1.306425842011e-04  7.396872710298e-04 -3.483990099415e-04
3
step 95
H  8.478661179000e-01  4.088411957000e-01 -2.077233505000e-01  2.748246113320e-03  2.463730308646e-03 -1.204493529259e-03
O -3.848224600000e-03 -1.063425635000e-01  4.983212690000e-02 -1.784994375801e-04 -2.081510118697e-04  1.007352471312e-04
H -7.831325527000e-01  3.763591221000e-01 -1.594991174000e-01  7.094155041093e-05  8.313544744486e-04 -3.899588276123e-04
3
step 96
H  8.593809613000e-01  4.194222615000e-01 -2.128904701000e-01  2.497122397029e-03  2.360705995372e-03 -1.151355071388e-03
O -4.589270400000e-03 -1.072531997000e-01  5.027198100000e-02 -1.593368159096e-04 -2.071790922774e-04  9.987446753582e-05
H -7.829467105000e-01  3.801936051000e-01 -1.612947249000e-01  1.784776977667e-05  9.189302824532e-04 -4.297457442957e-04
3
step 97
H  8.697178494000e-01  4.294991792000e-01 -2.177985882000e-01  2.213501608957e-03  2.235284271260e-03 -1.087111426779e-03
O -5.242543700000e-03 -1.081555390000e-01  5.070610490000e-02 -1.386703394420e-04 -2.044346008118e-04  9.815760736274e-05
H -7.829763710000e-01  3.844004651000e-01 -1.632597215000e-01 -2.663408726455e-05  1.000776292011e-03 -4.670361249764e-04
3
step 98
H  8.787507938000e-01  4.389827090000e-01 -2.224035268000e-01  1.904241627204e-03  2.091172830415e-03 -1.013630071005e-03
O -5.802742000000e-03 -1.090421588000e-01  5.113093520000e-02 -1.170386673657e-04 -2.000560213646e-04  9.566056854698e-05
H -7.831797791000e-01  3.889511633000e-01 -1.653816483000e-01 -6.081261659962e-05  1.075386152542e-03 -5.011614521061e-04
3
step 99
H  8.863814204000e-01  4.477985413000e-01 -2.266686268000e-01  1.575165604340e-03  1.931518579403e-03 -9.324958620691e-04
O -6.266721600000e-03 -1.099061822000e-01  5.154320810000e-02 -9.489253512809e-05 -1.941575885191e-04  9.244601075277e-05
H -7.835085279000e-01  3.938109166000e-01 -1.676452676000e-01 -8.335717342981e-05  1.141431934440e-03 -5.315289912242e-04
3
step 100
H  8.925346979000e-01  4.558849742000e-01 -2.305635790000e-01  1.231191839480e-03  1.758975361615e-03 -8.450457573595e-04
O -6.633124200000e-03 -1.107411863000e-01  5.193990850000e-02 -7.260132300400e-05 -1.868358332638e-04  8.856660594620e-05
H -7.839092182000e-01  3.989395660000e-01 -1.700329336000e-01 -9.332431110196e-05  1.197797620997e-03 -5.576369622037e-04
3
step 101
H  8.971552909000e-01  4.631909214000e-01 -2.340634237000e-01  8.764782959314e-04  1.575781326505e-03 -7.524079965151e-04
O -6.902038700000e-03 -1.115411387000e-01  5.231823370000e-02 -5.046175019284e-05 -1.781757767364e-04  8.406818783412e-05
H -7.843251870000e-01  4.042925622000e-01 -1.725250176000e-01 -9.016374630119e-05  1.243599138655e-03 -5.790837955841e-04
3
step 102
H  9.002045536000e-01  4.696742664000e-01 -2.371477246000e-01  5.145661497887e-04  1.383836824486e-03 -6.555411974342e-04
O -7.074703200000e-03 -1.123003606000e-01  5.267556950000e-02 -2.870753797363e-05 -1.682564200294e-04  7.899248991044e-05
H -7.846982199000e-01  4.098220098000e-01 -1.751003598000e-01 -7.370848562847e-05  1.278192388301e-03 -5.955721047958e-04
3
step 103
H  9.016581384000e-01  4.753005523000e-01 -2.397999107000e-01  1.485152615143e-04  1.184779065553e-03 -5.552717152934e-04
O -7.153251600000e-03 -1.130135111000e-01  5.300947840000e-02 -7.519497965776e-06 -1.571552237987e-04  7.337946753883e-05
H -7.849701927000e-01  4.154777235000e-01 -1.777367292000e-01 -4.415005062394e-05  1.301170086688e-03 -6.069077445281e-04
3
step 104
H  9.015041757000e-01  4.800419896000e-01 -2.420067769000e-01 -2.189706052936e-04  9.800526365425e-04 -4.523289446042e-04
O -7.140504500000e-03 -1.136755891000e-01  5.331769600000e-02  1.296437503907e-05 -1.449517787996e-04  6.726920407176e-05
H -7.850845666000e-01  4.212082436000e-01 -1.804112669000e-01 -2.002851167623e-06  1.312349479510e-03 -6.129947825973e-04
3
step 105
H  8.997419781000e-01  4.838767626000e-01 -2.437581350000e-01 -5.854275106395e-04  7.709762610100e-04 -3.473786922952e-04
O -7.039803400000e-03 -1.142819500000e-01  5.359813540000e-02  3.263906622282e-05 -1.317308319080e-04  6.070351071065e-05
H -7.849877191000e-01  4.269617854000e-01 -1.831009025000e-01  5.193553676177e-05  1.311754272123e-03 -6.138278663286e-04
3
step 106
H  8.963812371000e-01  4.867886218000e-01 -2.450466063000e-01 -9.485233247176e-04  5.588067159270e-04 -2.410551429167e-04
O -6.854887700000e-03 -1.148283346000e-01  5.384889810000e-02  5.142314727652e-05 -1.175849784565e-04  5.372735266685e-05
H -7.846300909000e-01  4.326870970000e-01 -1.857827304000e-01  1.166256749040e-04  1.299593282841e-03 -6.094830942111e-04
3
step 107
H  8.914416734000e-01  4.887667489000e-01 -2.458675519000e-01 -1.305955743685e-03  3.448009748192e-04 -1.339918730723e-04
O -6.589811600000e-03 -1.153109086000e-01  5.406829080000e-02  6.924972119215e-05 -1.026170026011e-04  4.639012447871e-05
H -7.839671552000e-01  4.383342209000e-01 -1.884343459000e-01  1.908281104872e-04  1.276235923934e-03 -6.001073836850e-04
3
step 108
H  8.849531252000e-01  4.898058941000e-01 -2.462191377000e-01 -1.655354007972e-03  1.302796902163e-04 -2.685341894456e-05
O -6.248899700000e-03 -1.157263119000e-01  5.425484720000e-02  8.605781501512e-05 -8.694240510008e-05  3.874698475205e-05
H -7.829601990000e-01  4.438551377000e-01 -1.910341291000e-01  2.731418825747e-04  1.242189090513e-03 -5.859085062982e-04
3
step 109
H  8.769560594000e-01  4.899067959000e-01 -2.461025398000e-01 -1.994181809052e-03 -8.330681897538e-05  7.963202713574e-05
O -5.836739900000e-03 -1.160717211000e-01  5.440735660000e-02  1.017842388418e-04 -7.069228763365e-05  3.086040573893e-05
H -7.815769548000e-01  4.492043258000e-01 -1.935614935000e-01  3.620363272851e-04  1.198077418248e-03 -5.671464758879e-04
3
step 110
H  8.675025088000e-01  4.890768957000e-01 -2.455222965000e-01 -2.319639250019e-03 -2.943092295347e-04  1.846383613984e-04
O -5.358209700000e-03 -1.163449235000e-01  5.452489930000e-02  1.163555819480e-04 -5.401632854327e-05  2.280169091926e-05
H -7.797921041000e-01  4.543392317000e-01 -1.959970947000e-01  4.558810728832e-04  1.144622028088e-03 -5.441243333866e-04
3
step 111
H  8.566574413000e-01  4.873313650000e-01 -2.444868129000e-01 -2.628566739700e-03 -5.008059083357e-04  2.872054986451e-04
O -4.818539500000e-03 -1.165444053000e-01  5.460688880000e-02  1.296806294519e-04 -3.708636651864e-05  1.465280341235e-05
H -7.775876467000e-01  4.592206443000e-01 -1.983229977000e-01  5.529700102559e-04  1.082624363102e-03 -5.171811120081e-04
3
step 112
H  8.445005388000e-01  4.846944609000e-01 -2.430090286000e-01 -2.917346683542e-03 -7.005232575976e-04  3.862002670969e-04
O -4.223405000000e-03 -1.166694576000e-01  5.465312260000e-02  1.416431629435e-04 -2.010065622546e-05  6.508468650232e-06
H -7.749531935000e-01  4.638130232000e-01 -2.005228251000e-01  6.515380137359e-04  1.012954893468e-03 -4.866868776818e-04
3
step 113
H  8.311284259000e-01  4.812012506000e-01 -2.411072651000e-01 -3.181804456835e-03 -8.907500949424e-04  4.802744554910e-04
O -3.579053500000e-03 -1.167203015000e-01  5.466384290000e-02  1.520946925489e-04 -3.288576465289e-06 -1.521517252766e-06
H -7.718861906000e-01  4.680847745000e-01 -2.025818802000e-01  7.497767568617e-04  9.365424202608e-04 -4.530380985998e-04
3
step 114
H  8.166573155000e-01  4.768997160000e-01 -2.388062597000e-01 -3.417117473240e-03 -1.068250867840e-03  5.678223665061e-04
O -2.892460100000e-03 -1.166982352000e-01  5.463980810000e-02  1.608478060828e-04  1.308428226934e-05 -9.309860283663e-06
H -7.683920733000e-01  4.720084858000e-01 -2.044872550000e-01  8.458478769409e-04  8.543670497864e-04 -4.166546557643e-04
3
step 115
H  8.012260337000e-01  4.718532382000e-01 -2.361383850000e-01 -3.617740279334e-03 -1.229183937325e-03  6.469408659704e-04
O -2.171512100000e-03 -1.166058040000e-01  5.458237450000e-02  1.676706015358e-04  2.871104852383e-05 -1.670935045653e-05
H -7.644843746000e-01  4.755611399000e-01 -2.062279272000e-01  9.378938906672e-04  7.674560522260e-04 -3.779781288518e-04
3
step 116
H  7.849993203000e-01  4.661434162000e-01 -2.331450322000e-01 -3.777364512399e-03 -1.369038566362e-03  7.153989352373e-04
O -1.425214000000e-03 -1.164469915000e-01  5.449358850000e-02  1.722832450892e-04  4.323957023125e-05 -2.355087341493e-05
H -7.601847842000e-01  4.787243135000e-01 -2.077948528000e-01  1.024050069653e-03  6.768811510167e-04 -3.374707905866e-04
3
step 117
H  7.681712043000e-01  4.598731033000e-01 -2.298780970000e-01 -3.888942066397e-03 -1.482611735589e-03  7.706274320811e-04
O -6.639019000000e-04 -1.162274247000e-01  5.437628630000e-02  1.743584465023e-04  5.627086513350e-05 -2.964261964390e-05
H -7.555231530000e-01  4.814843678000e-01 -2.091810548000e-01  1.102458391212e-03  5.837567675771e-04 -2.956150445044e-04
3
step 118
H  7.509681020000e-01  4.531694292000e-01 -2.264014526000e-01 -3.944807462982e-03 -1.564053492492e-03  8.097432668687e-04
O  1.005558000000e-04 -1.159545784000e-01  5.423419300000e-02  1.735282288062e-04  6.736214223148e-05 -3.477146034964e-05
H -7.505374298000e-01  4.838326318000e-01 -2.103817106000e-01  1.171285145957e-03  4.892383254546e-04 -2.529130089884e-04
3
step 119
H  7.336511211000e-01  4.461864387000e-01 -2.227922240000e-01 -3.936937874483e-03 -1.607016286923e-03  8.296246599796e-04
O  8.546029000000e-04 -1.156379544000e-01  5.407200950000e-02  1.693993052447e-04  7.603688090377e-05 -3.870780646329e-05
H -7.452735119000e-01  4.857655774000e-01 -2.113942371000e-01  1.228743509548e-03  3.945196539820e-04 -2.098857036265e-04
3
step 120
H  7.165168837000e-01  4.391068073000e-01 -2.191416021000e-01 -3.857393007727e-03 -1.604950273278e-03  8.270573553075e-04
O  1.582929300000e-03 -1.152891975000e-01  5.389547000000e-02  1.615792986966e-04  8.180436748418e-05 -4.121527179599e-05
H -7.397849841000e-01  4.872849806000e-01 -2.122183711000e-01  1.273122358453e-03  3.008283852505e-04 -1.670714676350e-04
3
step 121
H  6.998959811000e-01  4.321418960000e-01 -2.155548394000e-01 -3.698979361386e-03 -1.551588525216e-03  7.989736347907e-04
O  2.268545400000e-03 -1.149221036000e-01  5.371134430000e-02  1.497163404987e-04  8.419129935565e-05 -4.206637452320e-05
H -7.341327172000e-01  4.883980560000e-01 -2.128562403000e-01  1.302822230234e-03  2.094179959488e-04 -1.250229109825e-04
3
step 122
H  6.841479844000e-01  4.255292206000e-01 -2.121499716000e-01 -3.456163663831e-03 -1.441654790921e-03  7.428006673833e-04
O  2.893061800000e-03 -1.145524592000e-01  5.352735710000e-02  1.335533788404e-04  8.278704270742e-05 -4.106486666086e-05
H -7.283842928000e-01  4.891175483000e-01 -2.133124172000e-01  1.316398565481e-03  1.215551090448e-04 -8.430188625798e-05
3
step 123
H  6.696519049000e-01  4.195263136000e-01 -2.090547652000e-01 -3.126205331826e-03 -1.271787293469e-03  6.569148099046e-04
O  3.437239600000e-03 -1.141976536000e-01  5.335199530000e-02  1.129959625515e-04  7.730219655737e-05 -3.807447212422e-05
H -7.226132227000e-01  4.894617562000e-01 -2.135939463000e-01  1.312610837230e-03  3.850153421287e-05 -4.547215216964e-05
3
step 124
H  6.567912960000e-01  4.144001088000e-01 -2.064014644000e-01 -2.710384907121e-03 -1.041594300255e-03  5.411592943473e-04
O  3.881862900000e-03 -1.138760059000e-01  5.319417640000e-02  8.818614092622e-05  6.763579601902e-05 -3.305149187691e-05
H -7.168979438000e-01  4.894544662000e-01 -2.137103333000e-01  1.290477334745e-03 -3.851115165769e-05 -9.088636197686e-06
3
step 125
H  6.459339634000e-01  4.104115666000e-01 -2.043192074000e-01 -2.215097565415e-03 -7.546547532141e-04  3.973329348617e-04
O  4.208935800000e-03 -1.136057887000e-01  5.306276950000e-02  5.956816769298e-05  5.393996950539e-05 -2.607605605567e-05
H -7.113205587000e-01  4.891247541000e-01 -2.136734788000e-01  1.249330020436e-03 -1.083128748716e-04  2.431601337252e-05
3
step 126
H  6.374074977000e-01  4.077963024000e-01 -2.029244973000e-01 -1.652498714766e-03 -4.191896204069e-04  2.295159324121e-04
O  4.403129900000e-03 -1.134039899000e-01  5.296599090000e-02  2.792635827561e-05  3.666484908805e-05 -1.737370836880e-05
H -7.059653503000e-01  4.885066456000e-01 -2.134975496000e-01  1.188865899080e-03 -1.698320582644e-04  5.424759975079e-05
3
step 127
H  6.314733354000e-01  4.067433367000e-01 -2.023107674000e-01 -1.040377336946e-03 -4.810436545222e-05  4.408700699326e-05
O  4.453312800000e-03 -1.132849432000e-01  5.291073620000e-02 -5.625592701104e-06  1.656441684300e-05 -7.318057292906e-06
H -7.009170726000e-01  4.876385937000e-01 -2.131987708000e-01  1.109192814963e-03 -2.221391236846e-04  8.026975880463e-05
3
step 128
H  6.283034000000e-01  4.073753524000e-01 -2.025387022000e-01 -4.010563121675e-04  3.418024255670e-04 -1.506678687310e-04
O  4.353901700000e-03 -1.132590386000e-01  5.290195230000e-02 -3.971609773252e-05 -5.350032794519e-06  3.592252770676e-06
H -6.962590646000e-01  4.865627584000e-01 -2.127951278000e-01  1.010863757448e-03 -2.644940489786e-04  1.020254748923e-04
3
step 129
H  6.279637859000e-01  4.097343694000e-01 -2.036292265000e-01  2.406248811078e-04  7.314531338338e-04 -3.453490640402e-04
O  4.105766600000e-03 -1.133317601000e-01  5.294217120000e-02 -7.284413605950e-05 -2.790849926567e-05  1.478198068924e-05
H -6.920712413000e-01  4.853240684000e-01 -2.123059698000e-01  8.948965712549e-04 -2.963952642864e-04  1.192595383281e-04
3
step 130
H  6.304090518000e-01  4.137761269000e-01 -2.055607707000e-01  8.598744539641e-04  1.101632324010e-03 -5.304938451602e-04
O  3.716459800000e-03 -1.135032593000e-01  5.303130600000e-02 -1.035408212561e-04 -4.991454318042e-05  2.566426577460e-05
H -6.884280349000e-01  4.839690731000e-01 -2.117515156000e-01  7.627719680618e-04 -3.176228711204e-04  1.318387904687e-04
3
step 131
H  6.354883452000e-01  4.193744951000e-01 -2.082714535000e-01  1.434485122939e-03  1.435158330363e-03 -6.976404970786e-04
O  3.199705200000e-03 -1.137685505000e-01  5.316675310000e-02 -1.305279885064e-04 -7.027983455338e-05  3.570658315917e-05
H -6.853964030000e-01  4.825446253000e-01 -2.111522795000e-01  6.164113798692e-04 -3.282759419613e-04  1.397700467183e-04
3
step 132
H  6.429618941000e-01  4.263348603000e-01 -2.116656588000e-01  1.946791328610e-03  1.718585325094e-03 -8.401617135358e-04
O  2.574240000000e-03 -1.141182616000e-01  5.334376590000e-02 -1.528389886147e-04 -8.812972528746e-05  4.448237813851e-05
H -6.830339638000e-01  4.810964074000e-01 -2.105284208000e-01  4.581350609499e-04 -3.287973729417e-04  1.432126257185e-04
3
step 133
H  6.525242587000e-01  4.344134315000e-01 -2.156235113000e-01  2.384699431235e-03  1.943108222069e-03 -9.537073560263e-04
O  1.862247100000e-03 -1.145397531000e-01  5.355600800000e-02 -1.698795009734e-04 -1.028596328154e-04  5.169841920829e-05
H -6.813873707000e-01  4.796673967000e-01 -2.098990595000e-01  2.905987013911e-04 -3.199798353264e-04  1.424824678451e-04
3
step 134
H  6.638298386000e-01  4.433385438000e-01 -2.200113278000e-01  2.741753798686e-03  2.104620879735e-03 -1.036232698187e-03
O  1.087664400000e-03 -1.150183621000e-01  5.379616660000e-02 -1.814265416505e-04 -1.141391540258e-04  5.719649848702e-05
H -6.804910028000e-01  4.782963391000e-01 -2.092815902000e-01  1.167139049040e-04 -3.029521675589e-04  1.380474407619e-04
3
step 135
H  6.765167020000e-01  4.528304743000e-01 -2.246913402000e-01  3.016460737564e-03  2.203114722842e-03 -1.087704124671e-03
O  2.746260000000e-04 -1.155385580000e-01  5.405652110000e-02 -1.875800104828e-04 -1.218762878199e-04  6.093567326880e-05
H -6.803660348000e-01  4.770163334000e-01 -2.086910388000e-01 -6.044191072635e-05 -2.791442971858e-04  1.305127715512e-04
3
step 136
H  6.902261778000e-01  4.626174831000e-01 -2.295295710000e-01  3.211200048935e-03  2.241710529955e-03 -1.109625417138e-03
O -5.538042000000e-04 -1.160848728000e-01  5.432940040000e-02 -1.886879821794e-04 -1.261602515398e-04  6.296431418151e-05
H -6.810199158000e-01  4.758536129000e-01 -2.081395036000e-01 -2.377207921679e-04 -2.502322468078e-04  1.205972910767e-04
3
step 137
H  7.046171592000e-01  4.724471565000e-01 -2.344014115000e-01  3.331029992247e-03  2.225603088014e-03 -1.104521451972e-03
O -1.376538200000e-03 -1.166425567000e-01  5.460750700000e-02 -1.852656025560e-04 -1.272002200393e-04  6.339015580545e-05
H -6.824462736000e-01  4.748266098000e-01 -2.076357202000e-01 -4.119980800520e-04 -2.180679962126e-04  1.091025064021e-04
3
step 138
H  7.193752386000e-01  4.820932128000e-01 -2.391949788000e-01  3.382601505980e-03  2.161115387029e-03 -1.075475383598e-03
O -2.175020000000e-03 -1.171979720000e-01  5.488411270000e-02 -1.779212847020e-04 -1.252714241110e-04  6.235391726549e-05
H -6.846252142000e-01  4.739453511000e-01 -2.071847732000e-01 -5.802629473428e-04 -1.845972952747e-04  9.687600056212e-05
3
step 139
H  7.342175102000e-01  4.913585695000e-01 -2.438126439000e-01  3.373290150970e-03  2.054958671064e-03 -1.025766349306e-03
O -2.933485500000e-03 -1.177387775000e-01  5.515315150000e-02 -1.672970067722e-04 -1.206741026465e-04  6.000890630012e-05
H -6.875240183000e-01  4.732112423000e-01 -2.067879811000e-01 -7.397023097149e-04 -1.517716396520e-04  8.477196629967e-05
3
step 140
H  7.488941082000e-01  5.000756734000e-01 -2.481712191000e-01  3.310566542599e-03  1.913714014991e-03 -9.586149452199e-04
O -3.638996800000e-03 -1.182539627000e-01  5.540923660000e-02 -1.540242472680e-04 -1.137056604995e-04  5.650689935314e-05
H -6.910981753000e-01  4.726172332000e-01 -2.064429537000e-01 -8.877722250250e-04 -1.214632359348e-04  7.361291912713e-05
3
step 141
H  7.631875002000e-01  5.081050312000e-01 -2.522012581000e-01  3.201581502498e-03  1.743507594030e-03 -8.770231122958e-04
O -4.281315600000e-03 -1.187337891000e-01  5.564763010000e-02 -1.386939762325e-04 -1.046445876061e-04  5.198974916460e-05
H -6.952927044000e-01  4.721483460000e-01 -2.061438118000e-01 -1.022255890526e-03 -9.538808951387e-05  6.415500778822e-05
3
step 142
H  7.769103957000e-01  5.153326987000e-01 -2.558458423000e-01  3.052923894573e-03  1.549837620020e-03 -7.836883289666e-04
O -4.852675100000e-03 -1.191696829000e-01  5.586418670000e-02 -1.218383894192e-04 -9.374315905167e-05  4.658555881960e-05
H -7.000436964000e-01  4.717825144000e-01 -2.058815483000e-01 -1.141305440357e-03 -7.504307065411e-05  5.705950475070e-05
3
step 143
H  7.899029199000e-01  5.216672961000e-01 -2.590591305000e-01  2.870506413279e-03  1.337511197225e-03 -6.809718470634e-04
O -5.347494700000e-03 -1.195541134000e-01  5.605528940000e-02 -1.039219673594e-04 -8.122636545001e-05  4.040811494070e-05
H -7.052800002000e-01  4.714916617000e-01 -2.056444974000e-01 -1.243466688521e-03 -6.166020877662e-05  5.287198974071e-05
3
step 144
H  8.020295229000e-01  5.270369449000e-01 -2.618048669000e-01  2.659540909207e-03  1.110655192244e-03 -5.709033314095e-04
O -5.762071900000e-03 -1.198804758000e-01  5.621778860000e-02 -8.533939554398e-05 -6.729450928779e-05  3.355825442557e-05
H -7.109249813000e-01  4.712429404000e-01 -2.054188779000e-01 -1.327687132757e-03 -5.617933485069e-05  5.200979312635e-05
3
step 145
H  8.131759376000e-01  5.313863787000e-01 -2.640549715000e-01  2.424572296975e-03  8.727722062569e-04 -4.552078151776e-04
O -6.094279700000e-03 -1.201429919000e-01  5.634894980000e-02 -6.641827047263e-05 -5.212752454686e-05  2.612608596705e-05
H -7.168982784000e-01  4.710000496000e-01 -2.051893720000e-01 -1.393308686605e-03 -5.923864679015e-05  5.475746145705e-05
3
step 146
H  8.232463854000e-01  5.346743694000e-01 -2.657882836000e-01  2.169545630507e-03  6.268195304102e-04 -3.353439594020e-04
O -6.343282500000e-03 -1.203366315000e-01  5.644641180000e-02 -4.742474487444e-05 -3.588972143230e-05  1.819336241712e-05
H -7.231174982000e-01  4.707245569000e-01 -2.049397082000e-01 -1.440047118915e-03 -7.118132830324e-05  6.126943151542e-05
3
step 147
H  8.321611216000e-01  5.368715291000e-01 -2.669894877000e-01  1.897888216996e-03  3.752958353765e-04 -2.125461887229e-04
O -6.509282500000e-03 -1.204570544000e-01  5.650815560000e-02 -2.857062651583e-05 -1.873412884982e-05  9.835583460229e-06
H -7.294997924000e-01  4.703771585000e-01 -2.046532176000e-01 -1.467962950111e-03 -9.207361359880e-05  7.157787877394e-05
3
step 148
H  8.398543593000e-01  5.379584951000e-01 -2.676482253000e-01  1.612596672148e-03  1.203271844076e-04 -8.786652544303e-05
O -6.593297400000e-03 -1.205005695000e-01  5.653248070000e-02 -1.002121751514e-05 -8.061512289364e-07  1.123814882777e-06
H -7.359632971000e-01  4.699188424000e-01 -2.043133470000e-01 -1.477424586839e-03 -1.217327620832e-04  8.560501803372e-05
3
step 149
H  8.462725763000e-01  5.379244841000e-01 -2.677583870000e-01  1.316324304545e-03 -1.362513235187e-04  3.778554652911e-05
O -6.596975800000e-03 -1.204641088000e-01  5.651798980000e-02  8.096553796959e-06  1.775348773445e-05 -7.873812129386e-06
H -7.424283878000e-01  4.693119038000e-01 -2.039041082000e-01 -1.469066858163e-03 -1.597612496566e-04  1.031782426722e-04
3
step 150
H  8.513732040000e-01  5.367661918000e-01 -2.673175729000e-01  1.011467151548e-03 -3.928196106243e-04  1.636059420697e-04
O -6.522446400000e-03 -1.203452128000e-01  5.646357880000e-02  2.568612443483e-05  3.680624929623e-05 -1.709080738979e-05
H -7.488187560000e-01  4.685208092000e-01 -2.034104585000e-01 -1.443749981443e-03 -2.055824227384e-04  1.240459449743e-04
3
step 151
H  8.551236877000e-01  5.344870120000e-01 -2.663267099000e-01  7.002495763839e-04 -6.479004026454e-04  2.888605813626e-04
O -6.372202500000e-03 -1.201420260000e-01  5.636843220000e-02  4.267349858252e-05  5.621344386838e-05 -2.646108296251e-05
H -7.550623047000e-01  4.675129003000e-01 -2.028186113000e-01 -1.402520608023e-03 -2.584756266243e-04  1.478930484886e-04
3
step 152
H  8.575009235000e-01  5.310965676000e-01 -2.647898218000e-01  3.848078494136e-04 -9.000926380827e-04  4.128526704743e-04
O -6.149020600000e-03 -1.198533022000e-01  5.623202410000e-02  5.899972825128e-05  7.583415577177e-05 -3.591786525727e-05
H -7.610918843000e-01  4.662589497000e-01 -2.021162811000e-01 -1.346576187490e-03 -3.176088883430e-04  1.743555667541e-04
3
step 153
H  8.584910508000e-01  5.266105127000e-01 -2.627139332000e-01  6.727584577676e-05 -1.148007665781e-03  5.348911658259e-04
O -5.855909800000e-03 -1.194784191000e-01  5.605412340000e-02  7.461347621545e-05  9.552313142085e-05 -4.539251570404e-05
H -7.668458765000e-01  4.647335795000e-01 -2.012928667000e-01 -1.277232389952e-03 -3.820696431127e-04  2.030343346718e-04
3
step 154
H  8.580896386000e-01  5.210506223000e-01 -2.601091149000e-01 -2.501248641968e-04 -1.390204057485e-03  6.542586124334e-04
O -5.496095600000e-03 -1.190174017000e-01  5.583480480000e-02  8.946359266156e-05  1.151283018260e-04 -5.481325086485e-05
H -7.722686448000e-01  4.629155481000e-01 -2.003395754000e-01 -1.195895515307e-03 -4.508900852672e-04  2.335062349509e-04
3
step 155
H  8.563022668000e-01  5.144451636000e-01 -2.569886698000e-01 -5.649935715544e-04 -1.625125322999e-03  7.701802391812e-04
O -5.073034900000e-03 -1.184709584000e-01  5.557446550000e-02  1.034921443693e-04  1.344881405386e-04 -6.410372998595e-05
H -7.773108772000e-01  4.607879463000e-01 -1.992495084000e-01 -1.104043048087e-03 -5.230670979419e-04  2.653331390418e-04
3
step 156
H  8.531455126000e-01  5.068295324000e-01 -2.533694486000e-01 -8.746528966770e-04 -1.851037040258e-03  8.817927661211e-04
O -4.590460200000e-03 -1.178405276000e-01  5.527384820000e-02  1.166273341875e-04  1.534288067586e-04 -7.318157855542e-05
H -7.819298662000e-01  4.583383108000e-01 -1.980177074000e-01 -1.003208655338e-03 -5.975793624353e-04  2.980695681803e-04
3
step 157
H  8.486483848000e-01  4.982471734000e-01 -2.492723085000e-01 -1.176038202376e-03 -2.065956900297e-03  9.881096098002e-04
O -4.052456500000e-03 -1.171283389000e-01  5.493407070000e-02  1.287756205808e-04  1.717605296496e-04 -8.195657817573e-05
H -7.860897204000e-01  4.555586697000e-01 -1.966411717000e-01 -8.949677741721e-04 -6.733993800147e-04  3.312680140655e-04
3
step 158
H  8.428542786000e-01  4.887508290000e-01 -2.447227335000e-01 -1.465582243981e-03 -2.267586169249e-03  1.087986728533e-03
O -3.463575000000e-03 -1.163374915000e-01  5.455666540000e-02  1.398140108744e-04  1.892738875226e-04 -9.032873301853e-05
H -7.897615189000e-01  4.524455510000e-01 -1.951188589000e-01 -7.809308009265e-04 -7.495020151693e-04  3.644827739529e-04
3
step 159
H  8.358234189000e-01  4.784040596000e-01 -2.397515922000e-01 -1.739093621106e-03 -2.453241191470e-03  1.180088248263e-03
O -2.828976900000e-03 -1.154720476000e-01  5.414362520000e-02  1.495821716582e-04  2.057358218975e-04 -9.818630885324e-05
H -7.929234624000e-01  4.489999537000e-01 -1.934516686000e-01 -6.627396034744e-04 -8.248704379479e-04  3.972726292773e-04
3
step 160
H  8.276358789000e-01  4.672830917000e-01 -2.343960585000e-01 -1.991627380968e-03 -2.619783397952e-03  1.262851155938e-03
O -2.154616500000e-03 -1.145371457000e-01  5.369746010000e-02  1.578740912306e-04  2.208852904556e-04 -1.054036069560e-04
H -7.955609975000e-01  4.452273036000e-01 -1.916424194000e-01 -5.420654779728e-04 -8.984981214983e-04  4.292017415745e-04
3
step 161
H  8.183951557000e-01  4.554789506000e-01 -2.287006785000e-01 -2.217364192377e-03 -2.763560422323e-03  1.334455149000e-03
O -1.447457900000e-03 -1.135391323000e-01  5.322126300000e-02  1.644303225619e-04  2.344293633806e-04 -1.118389985671e-04
H -7.976669500000e-01  4.411374077000e-01 -1.896958249000e-01 -4.206085363448e-04 -9.693893265969e-04  4.598398124674e-04
3
step 162
H  8.082322458000e-01  4.430998237000e-01 -2.227185550000e-01 -2.409515634017e-03 -2.880369784024e-03  1.392803555913e-03
O -7.157254000000e-04 -1.124857094000e-01  5.271878330000e-02  1.689318901129e-04  2.460406178718e-04 -1.173335398694e-04
H -7.992416439000e-01  4.367444054000e-01 -1.876184692000e-01 -3.000962572637e-04 -1.036558224010e-03  4.887616082790e-04
3
step 163
H  7.973100504000e-01  4.302735114000e-01 -2.165125818000e-01 -2.560285944076e-03 -2.965465187187e-03  1.435525694814e-03
O  3.082540000000e-05 -1.113860887000e-01  5.219450480000e-02  1.709978306215e-04  2.553571929969e-04 -1.217109034230e-04
H -8.002930219000e-01  4.320667302000e-01 -1.854187869000e-01 -1.822829147741e-04 -1.099026330149e-03  5.155457167122e-04
3
step 164
H  7.858277851000e-01  4.171497346000e-01 -2.101566069000e-01 -2.660931173935e-03 -3.013630009067e-03  1.460012815512e-03
O  7.806364000000e-04 -1.102511386000e-01  5.165371980000e-02  1.701888956360e-04  2.619873790049e-04 -1.247795631166e-04
H -8.008367589000e-01  4.271270842000e-01 -1.831070498000e-01 -6.894700023180e-05 -1.155819279920e-03  5.397729332772e-04
3
step 165
H  7.740248669000e-01  4.039019432000e-01 -2.037363527000e-01 -2.701968760696e-03 -3.019348544499e-03  1.463502124141e-03
O  1.520108500000e-03 -1.090934987000e-01  5.110258810000e-02  1.660206566549e-04  2.655207797784e-04 -1.263382428343e-04
H -8.008963609000e-01  4.219524273000e-01 -1.806953608000e-01  3.811381954104e-05 -1.205963453309e-03  5.610245334420e-04
3
step 166
H  7.621834913000e-01  3.907281249000e-01 -1.973498437000e-01 -2.673600863883e-03 -2.977110217010e-03  1.443226726622e-03
O  2.233444200000e-03 -1.079276286000e-01  5.054816350000e-02  1.579898342536e-04  2.655481008182e-04 -1.261857853072e-04
H -8.005032338000e-01  4.165739814000e-01 -1.781976559000e-01  1.370909438212e-04 -1.248483173337e-03  5.788808921820e-04
3
step 167
H  7.506288139000e-01  3.778499512000e-01 -1.911070147000e-01 -2.566420269440e-03 -2.881880637066e-03  1.396649729340e-03
O  2.902640400000e-03 -1.067697497000e-01  4.999836600000e-02  1.456179514103e-04  2.616912311841e-04 -1.241362045111e-04
H -7.996967102000e-01  4.110272443000e-01 -1.756297102000e-01  2.261776551495e-04 -1.282399686724e-03  5.929207708993e-04
3
step 168
H  7.397253505000e-01  3.655094645000e-01 -1.851280900000e-01 -2.372454170464e-03 -2.729759597106e-03  1.321792813838e-03
O  3.507712700000e-03 -1.056376302000e-01  4.946187670000e-02  1.285156295987e-04  2.536445153153e-04 -1.200393467174e-04
H -7.985240063000e-01  4.053520030000e-01 -1.730091456000e-01  3.035879291143e-04 -1.306733645956e-03  6.027221493503e-04
3
step 169
H  7.298680249000e-01  3.539624663000e-01 -1.795403163000e-01 -2.086544723070e-03 -2.518806375389e-03  1.217648822462e-03
O  4.027250400000e-03 -1.045501661000e-01  4.894792990000e-02  1.064675779283e-04  2.412261771053e-04 -1.138065293943e-04
H -7.970400836000e-01  3.995923252000e-01 -1.703554302000e-01  3.675824755038e-04 -1.320512802326e-03  6.078653750840e-04
3
step 170
H  7.214664879000e-01  3.434679817000e-01 -1.744727313000e-01 -1.707950620647e-03 -2.249942075378e-03  1.084633220602e-03
O  4.439385400000e-03 -1.035267166000e-01  4.846598250000e-02  7.953121766424e-05  2.244352109276e-04 -1.054387170290e-04
H -7.953073784000e-01  3.937965057000e-01 -1.676898585000e-01  4.165034552701e-04 -1.322786825213e-03  6.079394348943e-04
3
step 171
H  7.149221503000e-01  3.342737519000e-01 -1.700489458000e-01 -1.241899401556e-03 -1.927751919024e-03  9.249882259234e-04
O  4.723209400000e-03 -1.025861863000e-01  4.802526040000e-02  4.813180990977e-05  2.035032399591e-04 -9.505235201174e-05
H -7.933953597000e-01  3.880169285000e-01 -1.650354951000e-01  4.488194320278e-04 -1.312650737741e-03  6.025520339385e-04
3
step 172
H  7.105989180000e-01  3.265986776000e-01 -1.663783767000e-01 -7.006737221561e-04 -1.560939680175e-03  7.430176084152e-04
O  4.860575600000e-03 -1.017459075000e-01  4.763420170000e-02  1.312744192427e-05  1.789258414406e-04 -8.289537152147e-05
H -7.913798650000e-01  3.823098075000e-01 -1.624170672000e-01  4.631848731369e-04 -1.289279327492e-03  5.913444972913e-04
3
step 173
H  7.087907191000e-01  3.206143355000e-01 -1.635469733000e-01 -1.037587039199e-04 -1.162180456306e-03  5.450231759397e-04
O  4.838084600000e-03 -1.010204483000e-01  4.729986250000e-02 -2.418612301512e-05  1.514567003314e-04 -6.934484887472e-05
H -7.893421377000e-01  3.767347480000e-01 -1.598607783000e-01  4.585136152798e-04 -1.251972015720e-03  5.740112745255e-04
3
step 174
H  7.096909499000e-01  3.164287094000e-01 -1.616090069000e-01  5.232929981905e-04 -7.472249571196e-04  3.388651006760e-04
O  4.648928500000e-03 -1.004205455000e-01  4.702738130000e-02 -6.215246745056e-05  1.220548642061e-04 -5.488105750764e-05
H -7.873675201000e-01  3.713540945000e-01 -1.573940294000e-01  4.340661482580e-04 -1.200207316593e-03  5.503235353631e-04
3
step 175
H  7.133699332000e-01  3.140755454000e-01 -1.605816444000e-01  1.151281148709e-03 -3.333250593519e-04  1.331783899130e-04
O  4.294203000000e-03 -9.995237490000e-02  4.681961130000e-02 -9.891347727371e-05  9.178948301302e-05 -4.003987285201e-05
H -7.855437268000e-01  3.662320158000e-01 -1.550450263000e-01  3.895510964049e-04 -1.133706424773e-03  5.201567695476e-04
3
step 176
H  7.197655408000e-01  3.135118602000e-01 -1.604435942000e-01  1.750628863958e-03  6.270866110582e-05 -6.360016715752e-05
O  3.783359900000e-03 -9.961731730000e-02  4.667700180000e-02 -1.326219677063e-04  6.172127772280e-05 -2.535308841077e-05
H -7.839586500000e-01  3.614332960000e-01 -1.528422597000e-01  3.252277239090e-04 -1.052497465801e-03  4.835186838338e-04
3
step 177
H  7.286892751000e-01  3.146242942000e-01 -1.611381945000e-01  2.294734209290e-03  4.263497303670e-04 -2.441601194349e-04
O  3.133659300000e-03 -9.941226650000e-02  4.659775240000e-02 -1.616589717305e-04  3.279012501508e-05 -1.129144702481e-05
H -7.826977354000e-01  3.570218577000e-01 -1.508138679000e-01  2.420024658024e-04 -9.569778403592e-04  4.405763904675e-04
3
step 178
H  7.398462207000e-01  3.172427465000e-01 -1.625801820000e-01  2.762612267510e-03  7.466736636074e-04 -4.029859171680e-04
O  2.368720200000e-03 -9.933037860000e-02  4.657819300000e-02 -1.848048154161e-04  5.735196832218e-06  1.776128133873e-06
H -7.818409433000e-01  3.530590077000e-01 -1.489868792000e-01  1.415015707521e-04 -8.479648575583e-04  3.916785583915e-04
3
step 179
H  7.528642459000e-01  3.211582600000e-01 -1.646646296000e-01  3.140314031954e-03  1.016926198810e-03 -5.366497594929e-04
O  1.516475800000e-03 -9.936207910000e-02  4.661329490000e-02 -2.013303602292e-04 -1.893890637379e-05  1.360010459729e-05
H -7.814594885000e-01  3.496015165000e-01 -1.473863809000e-01  2.610097730527e-05 -7.267217349494e-04  3.373669825202e-04
3
step 180
H  7.673263710000e-01  3.261416287000e-01 -1.672762779000e-01  3.421040782779e-03  1.234363626156e-03 -6.437371780830e-04
O  6.069255000000e-04 -9.949610860000e-02  4.669720430000e-02 -2.110029133725e-04 -4.095177940572e-05  2.404533075378e-05
H -7.816125398000e-01  3.466996366000e-01 -1.460346600000e-01 -1.010940363321e-04 -5.949557426871e-04  2.783761540622e-04
3
step 181
H  7.828009701000e-01  3.319598861000e-01 -1.702978224000e-01  3.604249788009e-03  1.399580115409e-03 -7.245137085783e-04
O -3.299611000000e-04 -9.972043850000e-02  4.682370990000e-02 -2.140247383039e-04 -6.020673128912e-05  3.307064905906e-05
H -7.823441386000e-01  3.443951985000e-01 -1.449503766000e-01 -2.363295629521e-04 -4.547825586454e-04  2.156182446909e-04
3
step 182
H  7.988663141000e-01  3.383890255000e-01 -1.736163272000e-01  3.694200240960e-03  1.515594721456e-03 -7.804706674437e-04
O -1.265954700000e-03 -1.000229635000e-01  4.698659770000e-02 -2.109328166442e-04 -7.673792132300e-05  4.070213266201e-05
H -7.836806043000e-01  3.427199412000e-01 -1.441478354000e-01 -3.753404394766e-04 -3.086570310433e-04  1.501536416921e-04
3
step 183
H  8.151280484000e-01  3.452224994000e-01 -1.771275378000e-01  3.698366820657e-03  1.586932621212e-03 -8.138664309338e-04
O -2.175784700000e-03 -1.003919540000e-01  4.717988470000e-02 -2.024870910912e-04 -9.065942867578e-05  4.700733222781e-05
H -7.856286546000e-01  3.416942134000e-01 -1.436364173000e-01 -5.135376271455e-04 -1.592738682705e-04  8.314837340040e-05
3
step 184
H  8.312298532000e-01  3.522759000000e-01 -1.807382811000e-01  3.626015304383e-03  1.618847691308e-03 -8.273360417978e-04
O -3.037871600000e-03 -1.008163029000e-01  4.739794790000e-02 -1.895668401941e-04 -1.021244650943e-04  5.207449146949e-05
H -7.881744514000e-01  3.413261730000e-01 -1.434202235000e-01 -6.462293624660e-04 -9.446908872330e-06  1.582220516641e-05
3
step 185
H  8.468584564000e-01  3.593886552000e-01 -1.843673611000e-01  3.487084475717e-03  1.616745223708e-03 -8.235996599147e-04
O -3.834639500000e-03 -1.012856212000e-01  4.763557630000e-02 -1.730856343613e-04 -1.112971716557e-04  5.599802498912e-05
H -7.912836559000e-01  3.416115457000e-01 -1.434979609000e-01 -7.688527163952e-04  1.380199551651e-04 -5.060691235782e-05
3
step 186
H  8.617445101000e-01  3.664236576000e-01 -1.879454082000e-01  3.291401201167e-03  1.585800674469e-03 -8.052686181069e-04
O -4.552503400000e-03 -1.017902383000e-01  4.788797340000e-02 -1.539280408226e-04 -1.183360944974e-04  5.886966419478e-05
H -7.949025009000e-01  3.425339532000e-01 -1.438630727000e-01 -8.771940413507e-04  2.804579788962e-04 -1.149768682093e-04
3
step 187
H  8.756607350000e-01  3.732656243000e-01 -1.914140776000e-01  3.048186887036e-03  1.530738677353e-03 -7.747319600613e-04
O -5.181627600000e-03 -1.023211525000e-01  4.815073090000e-02 -1.329066376735e-04 -1.233866289069e-04  6.077395940816e-05
H -7.989597749000e-01  3.440657676000e-01 -1.445040965000e-01 -9.675768450701e-04  4.154428440040e-04 -1.762286966924e-04
3
step 188
H  8.884184774000e-01  3.798187922000e-01 -1.947249056000e-01  2.765791029577e-03  1.455730159106e-03 -7.341029501487e-04
O -5.715538100000e-03 -1.028699657000e-01  4.841979210000e-02 -1.107364115425e-04 -1.265796114447e-04  6.178686741658e-05
H -8.033695385000e-01  3.461693960000e-01 -1.454052087000e-01 -1.037001618385e-03  5.408789531445e-04 -2.334431181838e-04
3
step 189
H  8.998635225000e-01  3.860043769000e-01 -1.978380400000e-01  2.451587768036e-03  1.364370288816e-03 -6.852065076656e-04
O -6.150656000000e-03 -1.034288210000e-01  4.869141330000e-02 -8.802299176249e-05 -1.280333997622e-04  6.197626799931e-05
H -8.080343324000e-01  3.487988722000e-01 -1.465469024000e-01 -1.083229366204e-03  6.550540171734e-04 -2.858643816192e-04
3
step 190
H  9.098717460000e-01  3.917580760000e-01 -2.007209868000e-01  2.111982009834e-03  1.259707581651e-03 -6.295928422131e-04
O -6.485806600000e-03 -1.039903559000e-01  4.896213180000e-02 -6.526135219852e-05 -1.278574242913e-04  6.140344951192e-05
H -8.128486242000e-01  3.519016198000e-01 -1.479067407000e-01 -1.104808809704e-03  7.566634324436e-04 -3.329112395340e-04
3
step 191
H  9.183449809000e-01  3.970277820000e-01 -2.033474591000e-01  1.752484052608e-03  1.144302293758e-03 -5.685663380289e-04
O -6.721742700000e-03 -1.045476713000e-01  4.922874050000e-02 -4.284200499212e-05 -1.261558267838e-04  6.012492815582e-05
H -8.177022547000e-01  3.554202562000e-01 -1.494601304000e-01 -1.101053371202e-03  8.448072639263e-04 -3.741760247151e-04
3
step 192
H  9.252073222000e-01  4.017715965000e-01 -2.056963772000e-01  1.377821483005e-03  1.020298237693e-03 -5.032216559734e-04
O -6.860707000000e-03 -1.050943159000e-01  4.948827100000e-02 -2.106181104461e-05 -1.230306006075e-04  5.819423067948e-05
H -8.224836835000e-01  3.592943296000e-01 -1.511810672000e-01 -1.071981028553e-03  9.189662335955e-04 -4.094147859208e-04
3
step 193
H  9.304019730000e-01  4.059561722000e-01 -2.077510336000e-01  9.920661690036e-04  8.894981495484e-04 -4.344815953622e-04
O -6.906049700000e-03 -1.056242831000e-01  4.973798450000e-02 -1.375102625869e-07 -1.185838625482e-04  5.566330682643e-05
H -8.270829089000e-01  3.634619138000e-01 -1.530428230000e-01 -1.018226770810e-03  9.789622953044e-04 -4.385306859039e-04
3
step 194
H  9.338886601000e-01  4.095553858000e-01 -2.094984236000e-01  5.987667511881e-04  7.534386949680e-04 -3.631346998210e-04
O -6.861910300000e-03 -1.061320154000e-01  4.997536750000e-02  1.977949573451e-05 -1.129194252435e-04  5.258364009524e-05
H -8.313939468000e-01  3.678609987000e-01 -1.550185462000e-01 -9.409398826284e-04  1.024908490598e-03 -4.615527369846e-04
3
step 195
H  9.356416402000e-01  4.125493372000e-01 -2.109287400000e-01  2.010747391507e-04  6.134596242399e-04 -2.898699376815e-04
O -6.732964000000e-03 -1.066124145000e-01  5.019813160000e-02  3.858883172292e-05 -1.061439673659e-04  4.900710252195e-05
H -8.353168527000e-01  3.724306472000e-01 -1.570817625000e-01 -8.416825039949e-04  1.057158973653e-03 -4.786145229119e-04
3
step 196
H  9.356482179000e-01  4.149236269000e-01 -2.120350073000e-01 -1.981348864807e-04  4.707689734542e-04 -2.153094534042e-04
O -6.524228500000e-03 -1.070608563000e-01  5.040421710000e-02  5.622729865700e-05 -9.836794782889e-05  4.498666776054e-05
H -8.387593126000e-01  3.771119485000e-01 -1.592067894000e-01 -7.223309005737e-04  1.076259008796e-03 -4.899328567287e-04
3
step 197
H  9.339078083000e-01  4.166689259000e-01 -2.128128624000e-01 -5.961460020460e-04  3.265061035632e-04 -1.400402036688e-04
O -6.240932100000e-03 -1.074732093000e-01  5.059179940000e-02  7.265600622280e-05 -8.970662512645e-05  4.057714244759e-05
H -8.416378007000e-01  3.818487369000e-01 -1.613690498000e-01 -5.849881570541e-04  1.082898400856e-03 -4.957877185267e-04
3
step 198
H  9.304314843000e-01  4.177808051000e-01 -2.132604662000e-01 -9.902909367914e-04  1.818013020265e-04 -6.464397075032e-05
O -5.888432800000e-03 -1.078458579000e-01  5.075929820000e-02  8.784900926026e-05 -8.028142407039e-05  3.583600270059e-05
H -8.438784065000e-01  3.865881379000e-01 -1.635453113000e-01 -4.319142678350e-04  1.077874250425e-03 -4.965061882791e-04
3
step 199
H  9.252420050000e-01  4.182598264000e-01 -2.133785466000e-01 -1.377841243563e-03  3.783516961892e-05  1.027284351437e-05
O -5.472186000000e-03 -1.081757332000e-01  5.090539180000e-02  1.017826709789e-04 -7.022152193762e-05  3.082433117880e-05
H -8.454173810000e-01  3.912809612000e-01 -1.657138589000e-01 -2.654666222279e-04  1.062056748848e-03 -4.924476219946e-04
3
step 200
H  9.183743194000e-01  4.181118918000e-01 -2.131705710000e-01 -1.755902240598e-03 -1.041008682887e-04  8.404896665757e-05
O -4.997756600000e-03 -1.084603500000e-01  5.102903460000e-02  1.144266397468e-04 -5.966628939948e-05  2.560812896860e-05
H -8.462014426000e-01  3.958819470000e-01 -1.678546047000e-01 -8.806205120450e-05  1.036367863512e-03 -4.839943770990e-04
3
step 201
H  9.098765171000e-01  4.173488641000e-01 -2.126430539000e-01 -2.121304271319e-03 -2.425404896177e-04  1.559363040885e-04
O -4.470865400000e-03 -1.086978589000e-01  5.112948250000e-02  1.257353241216e-04 -4.876825711954e-05  2.025987430432e-05
H -8.461879913000e-01  4.003499729000e-01 -1.699491799000e-01  9.784999083044e-05  1.001764644452e-03 -4.715445216446e-04
3
step 202
H  8.998112841000e-01  4.159894770000e-01 -2.118060090000e-01 -2.470497972920e-03 -3.757772332858e-04  2.250675990637e-04
O -3.897476300000e-03 -1.088871096000e-01  5.120632400000e-02  1.356402638034e-04 -3.769649374396e-05  1.486024127514e-05
H -8.453451803000e-01  4.046481541000e-01 -1.719809800000e-01  2.898042154279e-04  9.592277967785e-04 -4.555068427466e-04
3
step 203
H  8.882577698000e-01  4.140605258000e-01 -2.106735402000e-01 -2.799452383559e-03 -5.017954812415e-04  2.904223693800e-04
O -3.283909300000e-03 -1.090277320000e-01  5.125952100000e-02  1.440435747793e-04 -2.664082039013e-05  9.500243637608e-06
H -8.436519827000e-01  4.087439499000e-01 -1.739352133000e-01  4.853221101523e-04  9.097599208297e-04 -4.363000877920e-04
3
step 204
H  8.753139340000e-01  4.115983826000e-01 -2.092645911000e-01 -3.103553300964e-03 -6.181973722834e-04  3.507907185381e-04
O -2.636984800000e-03 -1.091202371000e-01  5.128945840000e-02  1.508117235817e-04 -1.581646852513e-05  4.283547756285e-06
H -8.410982406000e-01  4.126092494000e-01 -1.757989396000e-01  6.819096347828e-04  8.543857224395e-04 -4.143530192922e-04
3
step 205
H  8.610993040000e-01  4.086508259000e-01 -2.076038530000e-01 -3.377519993707e-03 -7.221329338828e-04  4.047387741937e-04
O -1.964191300000e-03 -1.091661382000e-01  5.129700530000e-02  1.557708145579e-04 -5.468961824602e-06 -6.711413191612e-07
H -8.376847517000e-01  4.162204787000e-01 -1.775611192000e-01  8.770491214502e-04  7.941578592838e-04 -3.901070523666e-04
3
step 206
H  8.457580501000e-01  4.052791669000e-01 -2.057228172000e-01 -3.615351176223e-03 -8.102399594407e-04  4.505790358922e-04
O -1.273871000000e-03 -1.091680947000e-01  5.128358540000e-02  1.587037238351e-04  4.121376792748e-06 -5.227949754491e-06
H -8.334233898000e-01  4.195587382000e-01 -1.792126747000e-01  1.068189666334e-03  7.301653972834e-04 -3.640200304126e-04
3
step 207
H  8.294622153000e-01  4.015606064000e-01 -2.036609417000e-01 -3.810321973640e-03 -8.786063567229e-04  4.863525891958e-04
O -5.754123000000e-04 -1.091300730000e-01  5.125125670000e-02  1.593505107122e-04  1.263613859537e-05 -9.232431625020e-06
H -8.283372749000e-01  4.226099845000e-01 -1.807465730000e-01  1.252736662007e-03  6.635448267845e-04 -3.365712075269e-04
3
step 208
H  8.124148177000e-01  3.975906891000e-01 -2.014668600000e-01 -3.955059969989e-03 -9.227736401258e-04  5.098323465430e-04
O  1.205678000000e-04 -1.090575188000e-01  5.120279460000e-02  1.574135874945e-04  1.971815709761e-05 -1.251153234739e-05
H -8.224609856000e-01  4.253652631000e-01 -1.821579303000e-01  1.428044401508e-03  5.954919700881e-04 -3.082666971719e-04
3
step 209
H  7.948524147000e-01  3.934856311000e-01 -1.991995186000e-01 -4.041734860193e-03 -9.378063280374e-04  5.185596063375e-04
O  8.020770000000e-04 -1.089575241000e-01  5.114177120000e-02  1.525697504411e-04  2.497533401093e-05 -1.487572335005e-05
H -8.158407939000e-01  4.278209948000e-01 -1.834441424000e-01  1.591414249935e-03  5.272735918639e-04 -2.796448751323e-04
3
step 210
H  7.770465456000e-01  3.893841663000e-01 -1.969290667000e-01 -4.062402538841e-03 -9.184588128187e-04  5.099291335091e-04
O  1.455669900000e-03 -1.088389656000e-01  5.107262060000e-02  1.444915264700e-04  2.799103376360e-05 -1.612427704065e-05
H -8.085348933000e-01  4.299793104000e-01 -1.846050369000e-01  1.740101441560e-03  4.602370760186e-04 -2.512810099670e-04
3
step 211
H  7.593032846000e-01  3.854484138000e-01 -1.947372486000e-01 -4.009543229135e-03 -8.594744797928e-04  4.813395052261e-04
O  2.066488400000e-03 -1.087125811000e-01  5.100067150000e-02  1.328801119928e-04  2.834317668848e-05 -1.605474711995e-05
H -8.006135750000e-01  4.318484213000e-01 -1.856430435000e-01  1.871333802765e-03  3.958160389191e-04 -2.237902067517e-04
3
step 212
H  7.419599748000e-01  3.818631071000e-01 -1.927169778000e-01 -3.876818687540e-03 -7.560490907297e-04  4.304240072779e-04
O  2.618472500000e-03 -1.085909411000e-01  5.093212930000e-02  1.175110329219e-04  2.563380443796e-05 -1.447754102202e-05
H -7.921592909000e-01  4.334430035000e-01 -1.865633724000e-01  1.982346126184e-03  3.355292369166e-04 -1.978275350681e-04
3
step 213
H  7.253781551000e-01  3.788324058000e-01 -1.909707092000e-01 -3.660038948975e-03 -6.044735482178e-04  3.553692896421e-04
O  3.094799800000e-03 -1.084882657000e-01  5.087398190000e-02  9.829156593587e-05  1.952987184594e-05 -1.123605986756e-05
H -7.832665298000e-01  4.347845588000e-01 -1.873741858000e-01  2.070433272337e-03  2.809699249917e-04 -1.740840659212e-04
3
step 214
H  7.099318339000e-01  3.765735010000e-01 -1.896072247000e-01 -3.358266993653e-03 -4.029293004039e-04  2.553082967007e-04
O  3.478598900000e-03 -1.084200397000e-01  5.083380520000e-02  7.532524483953e-05  9.814072198196e-06 -6.231692849958e-06
H -7.740414158000e-01  4.359017053000e-01 -1.880867412000e-01  2.133024165454e-03  2.337828141970e-04 -1.532775651251e-04
3
step 215
H  6.959907496000e-01  3.753064662000e-01 -1.887365663000e-01 -2.974899621721e-03 -1.523418663660e-04  1.307402533758e-04
O  3.753953400000e-03 -1.084023851000e-01  5.081944980000e-02  4.897347346228e-05 -3.559519632678e-06  5.490582791329e-07
H -7.646009365000e-01  4.368303373000e-01 -1.887154817000e-01  2.167779723194e-03  1.956243128484e-04 -1.361359233229e-04
3
step 216
H  6.838991863000e-01  3.752403932000e-01 -1.884631474000e-01 -2.518469412851e-03  1.428786434915e-04 -1.610747850942e-05
O  3.907154300000e-03 -1.084511883000e-01  5.083860980000e-02  1.989863046089e-05 -2.041529842919e-05  9.010361898696e-06
H -7.550716847000e-01  4.376135677000e-01 -1.892780347000e-01  2.172710876042e-03  1.681055303652e-04 -1.233728792520e-04
3
step 217
H  6.739522155000e-01  3.765567636000e-01 -1.888775190000e-01 -2.002871088167e-03  4.744362276672e-04 -1.810870467626e-04
O  3.928081600000e-03 -1.085810346000e-01  5.089829740000e-02 -1.092980093084e-05 -4.032567186335e-05  1.893278576609e-05
H -7.455880540000e-01  4.383013893000e-01 -1.897950888000e-01  2.146312818426e-03  1.527165673185e-04 -1.156553734561e-04
3
step 218
H  6.663725319000e-01  3.793920731000e-01 -1.900477976000e-01 -1.446777881272e-03  8.303045959584e-04 -3.582141426184e-04
O  3.811510200000e-03 -1.088040687000e-01  5.100428620000e-02 -4.228081977330e-05 -6.261435163742e-05  2.997576994367e-05
H -7.362898055000e-01  4.389499545000e-01 -1.902901077000e-01  2.087710308015e-03  1.507311180579e-04 -1.135619016404e-04
3
step 219
H  6.612918022000e-01  3.838225641000e-01 -1.920121669000e-01 -8.721897657537e-04  1.195554626255e-03 -5.400832878558e-04
O  3.558092100000e-03 -1.091289581000e-01  5.116060830000e-02 -7.276223236356e-05 -8.640136440565e-05  4.170062364526e-05
H -7.273189917000e-01  4.396204019000e-01 -1.907888424000e-01  1.996800190401e-03  1.630965054691e-04 -1.175340206262e-04
3
step 220
H  6.587402042000e-01  3.898540908000e-01 -1.947739396000e-01 -3.023079176028e-04  1.553783195041e-03 -7.185772767695e-04
O  3.174785000000e-03 -1.095601468000e-01  5.136919850000e-02 -1.009625232595e-04 -1.106856776927e-04  5.361189304771e-05
H -7.188162762000e-01  4.403771737000e-01 -1.913186202000e-01  1.874376937833e-03  1.903161872469e-04 -1.278238775102e-04
3
step 221
H  6.586463767000e-01  3.974193558000e-01 -1.983002678000e-01  2.408366111667e-04  1.888866802349e-03 -8.857329884672e-04
O  2.674592800000e-03 -1.100975424000e-01  5.162975340000e-02 -1.256057400231e-04 -1.344488068349e-04  6.520882650535e-05
H -7.109167595000e-01  4.412858141000e-01 -1.919073991000e-01  1.722217789206e-03  2.323380536616e-04 -1.444436403712e-04
3
step 222
H  6.608477088000e-01  4.063831204000e-01 -2.025247809000e-01  7.384831523112e-04  2.186654562027e-03 -1.034573318702e-03
O  2.075638700000e-03 -1.107366767000e-01  5.193982560000e-02 -1.456861694457e-04 -1.567556427358e-04  7.603507534735e-05
H -7.037455530000e-01  4.424103094000e-01 -1.925826126000e-01  1.543118609778e-03  2.884616676699e-04 -1.671227545793e-04
3
step 223
H  6.651086692000e-01  4.165542561000e-01 -2.073535758000e-01  1.176544027864e-03  2.436225458659e-03 -1.159721759280e-03
O  1.399727300000e-03 -1.114692742000e-01  5.229511850000e-02 -1.605545288682e-04 -1.768299561217e-04  8.571560493605e-05
H -6.974132911000e-01  4.438100744000e-01 -1.933698510000e-01  1.340858360568e-03  3.572813647467e-04 -1.952804571989e-04
3
step 224
H  6.711433692000e-01  4.277019570000e-01 -2.126732335000e-01  1.546140489562e-03  2.630513358070e-03 -1.257704826475e-03
O  6.706637000000e-04 -1.122840741000e-01  5.268990270000e-02 -1.699445558568e-04 -1.940931507246e-04  9.397523018924e-05
H -6.920120165000e-01  4.455367947000e-01 -1.942914660000e-01  1.120086568760e-03  4.366822349506e-04 -2.280214939345e-04
3
step 225
H  6.786385814000e-01  4.395732604000e-01 -2.183594553000e-01  1.843345456767e-03  2.766294281575e-03 -1.326941127127e-03
O -8.741760000000e-05 -1.131677378000e-01  5.311747370000e-02 -1.739450929294e-04 -2.081667224960e-04  1.006391001092e-04
H -6.876116767000e-01  4.476313781000e-01 -1.953652135000e-01  8.861418121506e-04  5.238960311789e-04 -2.641585537410e-04
3
step 226
H  6.872740522000e-01  4.519091483000e-01 -2.242849835000e-01  2.068372684503e-03  2.843677147651e-03 -1.367487191149e-03
O -8.514889000000e-04 -1.141056921000e-01  5.357057190000e-02 -1.729334008146e-04 -2.188476720422e-04  1.056198486204e-04
H -6.842575977000e-01  4.501212858000e-01 -1.966030554000e-01  6.448063097469e-04  6.156188594484e-04 -3.022622941633e-04
3
step 227
H  6.967384248000e-01  4.644576110000e-01 -2.303260144000e-01  2.224517880042e-03  2.865332209682e-03 -1.380655722052e-03
O -1.600717100000e-03 -1.150828224000e-01  5.404172820000e-02 -1.674908778212e-04 -2.260713832984e-04  1.088986567970e-04
H -6.819691281000e-01  4.530185140000e-01 -1.980102399000e-01  4.020259782425e-04  7.081830312984e-04 -3.407360868017e-04
3
step 228
H  7.067402855000e-01  4.769829973000e-01 -2.363667774000e-01  2.317092149294e-03  2.835657094594e-03 -1.368604963131e-03
O -2.317162300000e-03 -1.160839897000e-01  5.452351840000e-02 -1.583179015692e-04 -2.298728566332e-04  1.105056157220e-04
H -6.807395628000e-01  4.563184291000e-01 -1.995847569000e-01  1.636202402481e-04  7.977652055919e-04 -3.779076207309e-04
3
step 229
H  7.170147538000e-01  4.892717800000e-01 -2.423023549000e-01  2.352504806153e-03  2.760026098202e-03 -1.333970583368e-03
O -2.986119900000e-03 -1.170943858000e-01  5.500873680000e-02 -1.461593166478e-04 -2.303536785928e-04  1.105029690963e-04
H -6.805373258000e-01  4.599995699000e-01 -2.013172207000e-01 -6.498915656921e-05  8.806076126014e-04 -4.121270287775e-04
3
step 230
H  7.273265023000e-01  5.011353372000e-01 -2.480400405000e-01  2.337560005414e-03  2.644193912776e-03 -1.279573936077e-03
O -3.596168100000e-03 -1.180997606000e-01  5.549050390000e-02 -1.317459985819e-04 -2.276573703429e-04  1.089725017689e-04
H -6.813082677000e-01  4.640244194000e-01 -2.031911837000e-01 -2.790055756005e-04  9.532274117042e-04 -4.418604107714e-04
3
step 231
H  7.374701922000e-01  5.124104997000e-01 -2.534996058000e-01  2.278966545641e-03  2.493867536473e-03 -1.208212468096e-03
O -4.138998100000e-03 -1.190865619000e-01  5.596232960000e-02 -1.157534585943e-04 -2.219529822455e-04  1.060069050641e-04
H -6.829788381000e-01  4.683410391000e-01 -2.051838373000e-01 -4.744234287863e-04  1.012592301171e-03 -4.657686975075e-04
3
step 232
H  7.472692031000e-01  5.229585860000e-01 -2.586128240000e-01  2.183028986455e-03  2.314428583325e-03 -1.122523589966e-03
O -4.609099400000e-03 -1.200420190000e-01  5.641814550000e-02 -9.877604014758e-05 -2.134251610133e-04  1.017044058220e-04
H -6.854598356000e-01  4.728853767000e-01 -2.072670161000e-01 -6.481245750450e-04  1.056247153949e-03 -4.827650491560e-04
3
step 233
H  7.565733660000e-01  5.326635205000e-01 -2.633225460000e-01  2.055479782072e-03  2.110776442099e-03 -1.024907942074e-03
O -5.003364100000e-03 -1.209541954000e-01  5.685232100000e-02 -8.131439889572e-05 -2.022684999178e-04  9.616579522993e-05
H -6.886504240000e-01  4.775840098000e-01 -2.094084008000e-01 -7.979043431408e-04  1.082383547586e-03 -4.920469027455e-04
3
step 234
H  7.652562238000e-01  5.414294947000e-01 -2.675815526000e-01  1.901413892731e-03  1.887261685549e-03 -9.174970866209e-04
O -5.320662600000e-03 -1.218120231000e-01  5.725966980000e-02 -6.377331316146e-05 -1.886844442030e-04  8.949296152228e-05
H -6.924421091000e-01  4.823570608000e-01 -2.115728029000e-01 -9.224383185873e-04  1.089855451999e-03 -4.931039897483e-04
3
step 235
H  7.732121922000e-01  5.491785041000e-01 -2.713513474000e-01  1.725292368382e-03  1.647682175897e-03 -8.021519214706e-04
O -5.561429400000e-03 -1.226053286000e-01  5.763545290000e-02 -4.646675777832e-05 -1.728794763866e-04  8.178826832037e-05
H -6.967224649000e-01  4.871210788000e-01 -2.137234380000e-01 -1.021206039462e-03  1.078151099362e-03 -4.857066753852e-04
3
step 236
H  7.803538519000e-01  5.558479743000e-01 -2.746009956000e-01  1.530988685208e-03  1.395319491363e-03 -6.804807768570e-04
O -5.727282300000e-03 -1.233248508000e-01  5.797537970000e-02 -2.962769066349e-05 -1.550635941076e-04  7.315413866889e-05
H -7.013784432000e-01  4.917917078000e-01 -2.158231079000e-01 -1.094382759014e-03  1.047328925709e-03 -4.698781713410e-04
3
step 237
H  7.866095145000e-01  5.613886171000e-01 -2.773060748000e-01  1.321858865206e-03  1.132998440961e-03 -5.538686333996e-04
O -5.820694300000e-03 -1.239622537000e-01  5.827560750000e-02 -1.342031231733e-05 -1.354487742605e-04  6.369270763773e-05
H -7.062991514000e-01  4.962860082000e-01 -2.178352315000e-01 -1.142716740961e-03  9.979324629449e-04 -4.458571996002e-04
3
step 238
H  7.919211283000e-01  5.657625775000e-01 -2.794477698000e-01  1.100821428053e-03  8.631566447020e-04 -4.235111762685e-04
O -5.844720300000e-03 -1.245101312000e-01  5.853273960000e-02  2.047139866696e-06 -1.142475285501e-04  5.350535150596e-05
H -7.113780889000e-01  5.005243804000e-01 -2.197246996000e-01 -1.167406847339e-03  9.308977252299e-04 -4.140570954518e-04
3
step 239
H  7.962425442000e-01  5.689418981000e-01 -2.810121216000e-01  8.704390799667e-04  5.879167329958e-04 -2.904500972413e-04
O -5.802780300000e-03 -1.249620070000e-01  5.874382030000e-02  1.670997211646e-05 -9.167159160650e-05  4.269231293750e-05
H -7.165148544000e-01  5.044320754000e-01 -2.214585479000e-01 -1.169987599979e-03  8.474609381896e-04 -3.750249607746e-04
3
step 240
H  7.995381362000e-01  5.709072987000e-01 -2.819894304000e-01  6.329986792829e-04  3.091572478785e-04 -1.556077019625e-04
O -5.698495200000e-03 -1.253123278000e-01  5.890633000000e-02  3.053564327720e-05 -6.793097021064e-05  3.135244043246e-05
H -7.216163755000e-01  5.079403119000e-01 -2.230064549000e-01 -1.152228147051e-03  7.490738514627e-04 -3.294040993215e-04
3
step 241
H  8.017817669000e-01  5.716472606000e-01 -2.823738081000e-01  3.905885828357e-04  2.858100275145e-05 -1.982034244881e-05
O -5.535570100000e-03 -1.255564549000e-01  5.901817810000e-02  4.351355770389e-05 -4.323359589647e-05  1.958317918504e-05
H -7.265977322000e-01  5.109870447000e-01 -2.243410857000e-01 -1.116048247562e-03  6.373308170764e-04 -2.779015806991e-04
3
step 242
H  8.029560851000e-01  5.711574043000e-01 -2.821628736000e-01  1.451737616763e-04 -2.522191725107e-04  1.161294120088e-04
O -5.317718300000e-03 -1.256906548000e-01  5.907769780000e-02  5.564623403346e-05 -1.778569977515e-05  7.480918481807e-06
H -7.313826515000e-01  5.135174441000e-01 -2.254383063000e-01 -1.063452142271e-03  5.139094483498e-04 -2.212618426749e-04
3
step 243
H  8.030521484000e-01  5.694401499000e-01 -2.813575869000e-01 -1.013304545182e-04 -5.316967525561e-04  2.514815821444e-04
O -5.048622900000e-03 -1.257120934000e-01  5.908364190000e-02  6.694152072256e-05  8.207053849739e-06 -4.858336357131e-06
H -7.359037520000e-01  5.154841455000e-01 -2.262772961000e-01 -9.964797488192e-04  3.805253072836e-04 -1.602464506620e-04
3
step 244
H  8.020693661000e-01  5.665046510000e-01 -2.799622173000e-01 -3.469850764250e-04 -8.082893094232e-04  3.854683356643e-04
O -4.731928800000e-03 -1.256188368000e-01  5.903518360000e-02  7.740596348457e-05  3.453766593417e-05 -1.733799034892e-05
H -7.401026116000e-01  5.168473317000e-01 -2.268405853000e-01 -9.171738371698e-04  2.388998662192e-04 -9.561976754296e-05
3
step 245
H  8.000157635000e-01  5.623670000000e-01 -2.779844440000e-01 -5.897510731828e-04 -1.080355336350e-03  5.172829682453e-04
O -4.371261600000e-03 -1.254098624000e-01  5.893192120000e-02  8.703855212210e-05  6.099523377545e-05 -2.985953782064e-05
H -7.439297248000e-01  5.175747021000e-01 -2.271140422000e-01 -8.275574030147e-04  9.073824692722e-05 -2.813896597210e-05
3
step 246
H  7.969085931000e-01  5.570507153000e-01 -2.754355956000e-01 -8.274131093452e-04 -1.346112360616e-03  6.460495381889e-04
O -3.970274900000e-03 -1.250850819000e-01  5.877388980000e-02  9.582547755683e-05  8.736172386577e-05 -4.232093969401e-05
H -7.473443720000e-01  5.176413608000e-01 -2.270868228000e-01 -7.296261712875e-04 -6.228116019839e-05  4.145069349775e-05
3
step 247
H  7.927752658000e-01  5.505874870000e-01 -2.723310163000e-01 -1.057496800116e-03 -1.603571376698e-03  7.707906543813e-04
O -3.532715300000e-03 -1.246453805000e-01  5.856158060000e-02  1.037348660042e-04  1.134080682336e-04 -5.461469451122e-05
H -7.503145120000e-01  5.170296944000e-01 -2.267513169000e-01 -6.253475631108e-04 -2.185100467051e-04  1.124174439910e-04
3
step 248
H  7.876546870000e-01  5.430182389000e-01 -2.686905877000e-01 -1.277182332614e-03 -1.850471306865e-03  8.903952688236e-04
O -3.062515400000e-03 -1.240926745000e-01  5.829596940000e-02  1.107116045687e-04  1.388900413754e-04 -6.662585917938e-05
H -7.528166416000e-01  5.157292307000e-01 -2.261030842000e-01 -5.166642611987e-04 -3.763295232824e-04  1.840427746161e-04
3
step 249
H  7.815989432000e-01  5.343944474000e-01 -2.645393765000e-01 -1.483215627931e-03 -2.084214179411e-03  1.003586743423e-03
O -2.563904100000e-03 -1.234299864000e-01  5.797855340000e-02  1.166724273877e-04  1.635437897897e-04 -7.822986401875e-05
H -7.548357196000e-01  5.137365231000e-01 -2.251408019000e-01 -4.055053174571e-04 -5.341436060455e-04  2.556186101401e-04
3
step 250
H  7.746754155000e-01  5.247797704000e-01 -2.599084359000e-01 -1.671813291150e-03 -2.301798533340e-03  1.108889970585e-03
O -2.041542400000e-03 -1.226615412000e-01  5.761139830000e-02  1.215004943914e-04  1.870811603852e-04 -8.929023181926e-05
H -7.563651234000e-01  5.110550655000e-01 -2.238662258000e-01 -2.937957567156e-04 -6.903713360819e-04  3.264438552915e-04
3
step 251
H  7.669692979000e-01  5.142519492000e-01 -2.548357409000e-01 -1.838573188313e-03 -2.499762815309e-03  1.204603179100e-03
O -1.500681800000e-03 -1.217928831000e-01  5.719719550000e-02  1.250405277279e-04  2.091853854298e-04 -9.965642488596e-05
H -7.574066572000e-01  5.076952457000e-01 -2.222841684000e-01 -1.834699287025e-04 -8.434367917527e-04  3.958199471488e-04
3
step 252
H  7.585864936000e-01  5.029049333000e-01 -2.493672364000e-01 -1.978400272330e-03 -2.674146439038e-03  1.288778201022e-03
O -9.473422000000e-04 -1.208310091000e-01  5.673932830000e-02  1.270946978370e-04  2.295078325488e-04 -1.091621903265e-04
H -7.579706256000e-01  5.036743483000e-01 -2.204024984000e-01 -7.648252879595e-05 -9.917598140753e-04  4.630467412144e-04
3
step 253
H  7.496567819000e-01  4.908511220000e-01 -2.435579456000e-01 -2.085466988730e-03 -2.820483993816e-03  1.359216727986e-03
O -3.885060000000e-04 -1.197845140000e-01  5.624194290000e-02  1.274205116354e-04  2.476669259623e-04 -1.176248606837e-04
H -7.580759379000e-01  4.990165886000e-01 -2.182321552000e-01  2.518416146651e-05 -1.133748816495e-03  5.274192705552e-04
3
step 254
H  7.403370619000e-01  4.782235405000e-01 -2.374730502000e-01 -2.153233104783e-03 -2.933852303240e-03  1.413492585838e-03
O  1.676848000000e-04 -1.186637340000e-01  5.571002080000e-02  1.257323620949e-04  2.632505737011e-04 -1.248464601246e-04
H -7.577502450000e-01  4.937531788000e-01 -2.157871763000e-01  1.195159501946e-04 -1.267795418496e-03  5.882252637339e-04
3
step 255
H  7.308143449000e-01  4.651776698000e-01 -2.311888041000e-01 -2.174557759132e-03 -3.008994144687e-03  1.449012035644e-03
O  7.117484000000e-04 -1.174808701000e-01  5.514944080000e-02  1.217087413263e-04  2.758239292144e-04 -1.306175075365e-04
H -7.570300819000e-01  4.879224088000e-01 -2.130847341000e-01  2.044683898575e-04 -1.392272736040e-03  6.447442626006e-04
3
step 256
H  7.213080179000e-01  4.518925397000e-01 -2.247930863000e-01 -2.141944583217e-03 -3.040546083105e-03  1.463125457646e-03
O  1.232729400000e-03 -1.162500636000e-01  5.456701770000e-02  1.150072884067e-04  2.849445260462e-04 -1.347244901593e-04
H -7.559609901000e-01  4.815697272000e-01 -2.101451708000e-01  2.779784059819e-04 -1.505540523967e-03  6.962497843890e-04
3
step 257
H  7.120706911000e-01  4.385705654000e-01 -2.183853370000e-01 -2.047963122715e-03 -3.023397237361e-03  1.453303084459e-03
O  1.718150200000e-03 -1.149873875000e-01  5.397049850000e-02  1.052903688569e-04  2.901861980295e-04 -1.369616842658e-04
H -7.545975581000e-01  4.747477774000e-01 -2.069920158000e-01  3.379829149522e-04 -1.605954990003e-03  7.420134859243e-04
3
step 258
H  7.033867738000e-01  4.254355008000e-01 -2.120755725000e-01 -1.885889448958e-03 -2.953199539626e-03  1.417384835235e-03
O  2.154100600000e-03 -1.137107124000e-01  5.336849810000e-02  9.226332958253e-05  2.911728089086e-04 -1.371477251423e-04
H -7.530033810000e-01  4.675163924000e-01 -2.036519851000e-01  3.824483985679e-04 -1.691886521202e-03  7.813128566646e-04
3
step 259
H  6.955677157000e-01  4.127278101000e-01 -2.059821353000e-01 -1.650589523980e-03 -2.827028637589e-03  1.353905562650e-03
O  2.525524900000e-03 -1.124394026000e-01  5.277035100000e-02  7.572685086820e-05  2.876216862560e-04 -1.351468578012e-04
H -7.512508421000e-01  4.599424759000e-01 -2.001549306000e-01  4.094179490728e-04 -1.761750483546e-03  8.134447306620e-04
3
step 260
H  6.889428527000e-01  4.006968374000e-01 -2.002278630000e-01 -1.339611255893e-03 -2.644149185259e-03  1.262474192326e-03
O  2.816768500000e-03 -1.111938026000e-01  5.218585970000e-02  5.564163100736e-05  2.793935462500e-04 -1.308935199750e-04
H -7.494206608000e-01  4.520997278000e-01 -1.965337214000e-01  4.170693897880e-04 -1.814047236725e-03  8.377428210302e-04
3
step 261
H  6.838450923000e-01  3.895894818000e-01 -1.949345203000e-01 -9.543637923455e-04 -2.406771316250e-03  1.144150919565e-03
O  3.012431700000e-03 -1.099944953000e-01  5.162493250000e-02  3.219791622307e-05  2.665426378614e-04 -1.244170668112e-04
H -7.476011658000e-01  4.440681748000e-01 -1.928240400000e-01  4.037879590419e-04 -1.847414399287e-03  8.536007350744e-04
3
step 262
H  6.805914393000e-01  3.796357471000e-01 -1.902156672000e-01 -5.011577632857e-04 -2.120620225985e-03  1.001733218628e-03
O  3.098524900000e-03 -1.088613506000e-01  5.109711520000e-02  5.875627982276e-06  2.493564696666e-04 -1.158614262971e-04
H -7.458872072000e-01  4.359334385000e-01 -1.890640619000e-01  3.682557834907e-04 -1.860693183407e-03  8.605012654450e-04
3
step 263
H  6.794595785000e-01  3.710324325000e-01 -1.861685882000e-01  8.197262705822e-06 -1.795110711857e-03  8.398480312481e-04
O  3.063848000000e-03 -1.078124354000e-01  5.061105640000e-02 -2.252415632818e-05  2.283720598545e-04 -1.054932082646e-04
H -7.443786460000e-01  4.277856859000e-01 -1.852939956000e-01  3.095554804879e-04 -1.853006253224e-03  8.580508922633e-04
3
step 264
H  6.806631717000e-01  3.639271550000e-01 -1.828663544000e-01  5.565389233529e-04 -1.442955079516e-03  6.647654697726e-04
O  2.901421300000e-03 -1.068629203000e-01  5.017396900000e-02 -5.189543055415e-05  2.043572224345e-04 -9.369263546917e-05
H -7.431783599000e-01  4.197182161000e-01 -1.815554601000e-01  2.272858691106e-04 -1.823844967495e-03  8.460183900322e-04
3
step 265
H  6.843297198000e-01  3.584054716000e-01 -1.803513818000e-01  1.122421537174e-03 -1.079150129727e-03  4.839052877456e-04
O  2.609723300000e-03 -1.060241534000e-01  4.979117420000e-02 -8.090221550615e-05  1.782526888687e-04 -8.092512550303e-05
H -7.423897207000e-01  4.118256471000e-01 -1.778906874000e-01  1.216836692328e-04 -1.773158414100e-03  8.243741796236e-04
3
step 266
H  6.904852188000e-01  3.544837658000e-01 -1.786318129000e-01  1.682043966923e-03 -7.194727733295e-04  3.050969766002e-04
O  2.193465000000e-03 -1.053030729000e-01  4.946581220000e-02 -1.081075579662e-04  1.510825250472e-04 -6.769698381195e-05
H -7.421135347000e-01  4.042017234000e-01 -1.743415554000e-01 -6.258661920505e-06 -1.701435898830e-03  7.933267548080e-04
3
step 267
H  6.990488914000e-01  3.521095344000e-01 -1.776815498000e-01  2.211690311327e-03 -3.787893036415e-04  1.357425451462e-04
O  1.663699400000e-03 -1.047020657000e-01  4.919877370000e-02 -1.321335304126e-04  1.238514202682e-04 -5.450432701828e-05
H -7.424444888000e-01  3.969367813000e-01 -1.709484714000e-01 -1.546959005424e-04 -1.609770583246e-03  7.533505975279e-04
3
step 268
H  7.098392011000e-01  3.511690696000e-01 -1.774439618000e-01  2.690152852098e-03 -6.956112253639e-05 -1.792882326123e-05
O  1.037195600000e-03 -1.042192782000e-01  4.898885760000e-02 -1.518178801804e-04  9.745269985305e-05 -4.178701152056e-05
H -7.434672422000e-01  3.901149992000e-01 -1.677491613000e-01 -3.208684296327e-04 -1.499894251931e-03  7.052011982989e-04
3
step 269
H  7.225897870000e-01  3.515008213000e-01 -1.778384407000e-01  3.100618892389e-03  1.991442290866e-04 -1.513594196942e-04
O  3.351768000000e-04 -1.038492800000e-01  4.883310540000e-02 -1.663330133441e-04  7.260547349824e-05 -2.989693797915e-05
H -7.452523330000e-01  3.838115591000e-01 -1.647774214000e-01 -5.010998894888e-04 -1.374167681330e-03  6.499105308910e-04
3
step 270
H  7.369719885000e-01  3.529117339000e-01 -1.787684725000e-01  3.431698314944e-03  4.220021699219e-04 -2.618452108638e-04
O -4.183456000000e-04 -1.035839248000e-01  4.872723650000e-02 -1.752460946057e-04  4.982906036884e-05 -1.908501017072e-05
H -7.478522496000e-01  3.780899807000e-01 -1.620619469000e-01 -6.908685680353e-04 -1.235518994852e-03  5.887595667317e-04
3
step 271
H  7.526197726000e-01  3.551936632000e-01 -1.801297867000e-01  3.677539498825e-03  5.971933436152e-04 -3.484256179007e-04
O -1.198360600000e-03 -1.034132376000e-01  4.866609700000e-02 -1.785168394872e-04  2.945124437668e-05 -9.505134638538e-06
H -7.512979616000e-01  3.729998227000e-01 -1.596253247000e-01 -8.849567637646e-04 -1.087331302411e-03  5.232285741091e-04
3
step 272
H  7.691532727000e-01  3.581376326000e-01 -1.818174632000e-01  3.837221774815e-03  7.257686617094e-04 -4.115743913827e-04
O -1.980504500000e-03 -1.033262038000e-01  4.864405930000e-02 -1.764451394822e-04  1.163847496835e-05 -1.229423934627e-06
H -7.555962983000e-01  3.685749999000e-01 -1.574832966000e-01 -1.077675154690e-03 -9.332844834022e-04  4.549275242561e-04
3
step 273
H  7.861983988000e-01  3.615446942000e-01 -1.837313775000e-01  3.913726175984e-03  8.108412234410e-04 -4.528025946195e-04
O -2.742390500000e-03 -1.033113921000e-01  4.865533860000e-02 -1.695887149695e-04 -3.565448257169e-06  5.732120529764e-06
H -7.607284437000e-01  3.648328694000e-01 -1.556443609000e-01 -1.263142956710e-03 -7.771672534186e-04  3.855137076973e-04
3
step 274
H  8.034013709000e-01  3.652331136000e-01 -1.857798324000e-01  3.912772517652e-03  8.567900607891e-04 -4.742649466430e-04
O -3.464535500000e-03 -1.033574043000e-01  4.869421980000e-02 -1.586706295858e-04 -1.620239592466e-05  1.141256557774e-05
H -7.666497656000e-01  3.617741919000e-01 -1.541097567000e-01 -1.435596664609e-03 -6.226786947474e-04  3.166049898326e-04
3
step 275
H  8.204381518000e-01  3.690422628000e-01 -1.878815586000e-01  3.841734998490e-03  8.685897330918e-04 -4.784263565070e-04
O -4.130879900000e-03 -1.034531754000e-01  4.875520730000e-02 -1.444920475673e-04 -2.636973094981e-05  1.587242248997e-05
H -7.732910128000e-01  3.593839545000e-01 -1.528738250000e-01 -1.589690693205e-03 -4.732429742843e-04  2.496990637121e-04
3
step 276
H  8.370194912000e-01  3.728339383000e-01 -1.899664290000e-01  3.708754246153e-03  8.513112986785e-04 -4.678121714090e-04
O -4.728951400000e-03 -1.035881596000e-01  4.883311560000e-02 -1.278598057974e-04 -3.419848644727e-05  1.918828799783e-05
H -7.805607753000e-01  3.576329538000e-01 -1.519246989000e-01 -1.720758716779e-03 -3.318561592128e-04  1.861070055598e-04
3
step 277
H  8.528925889000e-01  3.764918879000e-01 -1.919752730000e-01  3.522080794120e-03  8.097908787058e-04 -4.448405753453e-04
O -5.249751000000e-03 -1.037524383000e-01  4.892311950000e-02 -1.095326036539e-04 -3.983882985866e-05  2.144509181840e-05
H -7.883489680000e-01  3.564799592000e-01 -1.512452463000e-01 -1.825009587952e-03 -2.009789760952e-04  1.269069976770e-04
3
step 278
H  8.678403928000e-01  3.799202280000e-01 -1.938591244000e-01  3.289634329366e-03  7.484370705678e-04 -4.117237406102e-04
O -5.687445500000e-03 -1.039367798000e-01  4.902077660000e-02 -9.018588379418e-05 -4.345103517051e-05  2.273120565352e-05
H -7.965310054000e-01  3.558742340000e-01 -1.508141656000e-01 -1.899643231547e-03 -8.248135514931e-05  7.292059566001e-05
3
step 279
H  8.816794060000e-01  3.830412849000e-01 -1.955781707000e-01  3.018741489005e-03  6.711423704978e-04 -3.704211255938e-04
O -6.038946500000e-03 -1.041326681000e-01  4.912203490000e-02 -7.039311836276e-05 -4.520006167400e-05  2.313535774530e-05
H -8.049722996000e-01  3.557581842000e-01 -1.506071353000e-01 -1.942884319360e-03  2.236315554805e-05  2.471061201388e-05
3
step 280
H  8.942566903000e-01  3.857932372000e-01 -1.971005926000e-01  2.716009402775e-03  5.812659453606e-04 -3.226289842711e-04
O -6.303439200000e-03 -1.043323149000e-01  4.922322870000e-02 -5.062017291268e-05 -4.525236338674e-05  2.274490959818e-05
H -8.135327296000e-01  3.560699288000e-01 -1.505979288000e-01 -1.953945967049e-03  1.128429747850e-04 -1.740359832682e-05
3
step 281
H  9.054465661000e-01  3.881278066000e-01 -1.984014211000e-01  2.387295492250e-03  4.816618953238e-04 -2.697929822409e-04
O -6.481911700000e-03 -1.045286610000e-01  4.932107020000e-02 -3.122930605578e-05 -4.377382294775e-05  2.164477264514e-05
H -8.220708217000e-01  3.567456466000e-01 -1.507594301000e-01 -1.932936416578e-03  1.887438447237e-04 -5.331798046006e-05
3
step 282
H  9.151473523000e-01  3.900081473000e-01 -1.994614876000e-01  2.037742169521e-03  3.747338867959e-04 -2.131345669926e-04
O -6.576719500000e-03 -1.047153694000e-01  4.941263700000e-02 -1.248959597966e-05 -4.092812433113e-05  1.991690543446e-05
H -8.304474021000e-01  3.577215818000e-01 -1.510645019000e-01 -1.880728867028e-03  2.502666803686e-04 -8.310804321236e-05
3
step 283
H  9.232783691000e-01  3.914070148000e-01 -2.002665116000e-01  1.671851445528e-03  2.625021088569e-04 -1.536839570211e-04
O -6.591205200000e-03 -1.048868134000e-01  4.949535840000e-02  5.409277900173e-06 -3.687563751503e-05  1.764009422037e-05
H -8.385286381000e-01  3.589356715000e-01 -1.514866891000e-01 -1.798817158072e-03  2.979409531400e-04 -1.069913447045e-04
3
step 284
H  9.297773315000e-01  3.923052416000e-01 -2.008063398000e-01  1.293581186790e-03  1.466741242073e-04 -9.231520618959e-05
O -6.529384200000e-03 -1.050380594000e-01  4.956700130000e-02  2.234179055894e-05 -3.177259569643e-05  1.488989353966e-05
H -8.461884284000e-01  3.603287930000e-01 -1.520007580000e-01 -1.689170269553e-03  3.325406662205e-04 -1.252910612512e-04
3
step 285
H  9.345981941000e-01  3.926905256000e-01 -2.010743403000e-01  9.064511906979e-04  2.871448593757e-05 -2.978073328230e-05
O -6.395697400000e-03 -1.051648479000e-01  4.962565640000e-02  3.823147782509e-05 -2.577072046679e-05  1.173880905284e-05
H -8.533101703000e-01  3.618456568000e-01 -1.525830817000e-01 -1.554098257779e-03  3.550092296952e-04 -1.384033639277e-04
3
step 286
H  9.377094729000e-01  3.925565153000e-01 -2.010669440000e-01  5.136521588458e-04 -9.008924767208e-05  3.325588086343e-05
O -6.194829500000e-03 -1.052635730000e-01  4.966972490000e-02  5.303681190101e-05 -1.901736351394e-05  8.256640371314e-06
H -8.597879771000e-01  3.634353954000e-01 -1.532118934000e-01 -1.396137088448e-03  3.663965769064e-04 -1.467701569536e-04
3
step 287
H  9.390930435000e-01  3.919021757000e-01 -2.007833259000e-01  1.181542589675e-04 -2.085646077072e-04  9.618895663339e-05
O -5.931584800000e-03 -1.053312644000e-01  4.969790830000e-02  6.673853961295e-05 -1.165624255771e-05  4.511047864949e-06
H -8.655274380000e-01  3.650519071000e-01 -1.538674329000e-01 -1.217955767054e-03  3.678096556404e-04 -1.508575892857e-04
3
step 288
H  9.387434130000e-01  3.907314155000e-01 -2.002252171000e-01 -2.771852730433e-04 -3.255955774602e-04  1.584413284917e-04
O -5.610816200000e-03 -1.053655740000e-01  4.970920000000e-02  7.932849253225e-05 -3.828789803488e-06  5.683983024352e-07
H -8.704460219000e-01  3.666540113000e-01 -1.545320127000e-01 -1.022286182735e-03  3.603757136227e-04 -1.511401428665e-04
3
step 289
H  9.366674603000e-01  3.890529654000e-01 -1.993968430000e-01 -6.695152624773e-04 -4.400662042182e-04  2.194360228858e-04
O -5.237399800000e-03 -1.053647692000e-01  4.970288220000e-02  9.079984611276e-05  4.323873373296e-06 -3.505142672809e-06
H -8.744732242000e-01  3.682054703000e-01 -1.551900248000e-01 -8.118752907422e-04  3.452174869732e-04 -1.480899638428e-04
3
step 290
H  9.328846423000e-01  3.868804995000e-01 -1.983049840000e-01 -1.055883258909e-03 -5.508049195593e-04  2.785682561230e-04
O -4.816248100000e-03 -1.053277368000e-01  4.967852730000e-02  1.011384987303e-04  1.265839036409e-05 -7.642275802198e-06
H -8.775505518000e-01  3.696749284000e-01 -1.558279132000e-01 -5.894555653061e-04  3.234381066688e-04 -1.421703671335e-04
3
step 291
H  9.274276740000e-01  3.842330009000e-01 -1.969591577000e-01 -1.433129177495e-03 -6.565294355996e-04  3.351777293648e-04
O -4.352360500000e-03 -1.052539986000e-01  4.963600640000e-02  1.103156986130e-04  2.102608388268e-05 -1.177292264157e-05
H -8.796314113000e-01  3.710358012000e-01 -1.564341243000e-01 -3.577341023047e-04  2.961156727323e-04 -1.338335234890e-04
3
step 292
H  9.203436656000e-01  3.811353647000e-01 -1.953719224000e-01 -1.797776503918e-03 -7.557895979897e-04  3.885199362780e-04
O -3.850901300000e-03 -1.051437425000e-01  4.957550520000e-02  1.182813061449e-04  2.926923514769e-05 -1.582240629168e-05
H -8.806809989000e-01  3.722661671000e-01 -1.569990589000e-01 -1.193945939481e-04  2.643047581005e-04 -1.235211405746e-04
3
step 293
H  9.116957542000e-01  3.776192637000e-01 -1.935593110000e-01 -2.145924733500e-03 -8.469094344100e-04  4.377371187175e-04
O -3.317308600000e-03 -1.049978704000e-01  4.949754830000e-02  1.249577555364e-04  3.721707966124e-05 -1.970937158006e-05
H -8.806762054000e-01  3.733486700000e-01 -1.575150288000e-01  1.228915453371e-04  2.290428172072e-04 -1.116672604400e-04
3
step 294
H  9.015651824000e-01  3.737242592000e-01 -1.915413878000e-01 -2.473146623622e-03 -9.279290110833e-04  4.818291401295e-04
O -2.757425400000e-03 -1.048180645000e-01  4.940303310000e-02  1.302348484227e-04  4.468139159503e-05 -2.334358182506e-05
H -8.796056038000e-01  3.742704669000e-01 -1.579762328000e-01  3.664448881109e-04  1.913617186886e-04 -9.870324651225e-05
3
step 295
H  8.900538292000e-01  3.694991750000e-01 -1.893429374000e-01 -2.774393856822e-03 -9.965470206516e-04  5.196247749194e-04
O -2.177654000000e-03 -1.046068740000e-01  4.929327400000e-02  1.339653336785e-04  5.145195847172e-05 -2.662366074761e-05
H -8.774695323000e-01  3.750232315000e-01 -1.583787577000e-01  6.085544028393e-04  1.523021166986e-04 -8.506404133369e-05
3
step 296
H  8.772871136000e-01  3.650037103000e-01 -1.869942734000e-01 -3.043926747519e-03 -1.050071410493e-03  5.497570614638e-04
O -1.585126200000e-03 -1.043678205000e-01  4.917005570000e-02  1.359621830852e-04  5.729227068467e-05 -2.943493494554e-05
H -8.742802873000e-01  3.756032270000e-01 -1.587206083000e-01  8.464501237124e-04  1.129307522531e-04 -7.119574989944e-05
3
step 297
H  8.634171414000e-01  3.603102468000e-01 -1.845321425000e-01 -3.275285759925e-03 -1.085386229049e-03  5.706472166599e-04
O -9.878809000000e-04 -1.041055228000e-01  4.903569580000e-02  1.359984222024e-04  6.193614807860e-05 -3.164793916713e-05
H -8.700624461000e-01  3.760114620000e-01 -1.590017750000e-01  1.077277123206e-03  7.435885162125e-05 -5.756377608861e-05
3
step 298
H  8.486258574000e-01  3.555057505000e-01 -1.820006737000e-01 -3.461330261235e-03 -1.098947859296e-03  5.805036257278e-04
O -3.950360000000e-04 -1.038258318000e-01  4.889311210000e-02  1.338109014669e-04  6.508619951289e-05 -3.311785407457e-05
H -8.648532882000e-01  3.762539238000e-01 -1.592243354000e-01  1.298073900258e-03  3.776047443556e-05 -4.466096823788e-05
3
step 299
H  8.331278535000e-01  3.506936122000e-01 -1.794522917000e-01 -3.594374994263e-03 -1.086827963563e-03  5.773445465115e-04
O  1.830669000000e-04 -1.035359687000e-01  4.874588930000e-02  1.291098496434e-04  6.641540900854e-05 -3.368564900119e-05
H -8.587033064000e-01  3.763418950000e-01 -1.593925926000e-01  1.505756523367e-03  4.390107582147e-06 -3.301562301308e-05
3
step 300
H  8.171723264000e-01  3.459951743000e-01 -1.769484673000e-01 -3.666462579329e-03 -1.044825601729e-03  5.590559055678e-04
O  7.347740000000e-04 -1.032446462000e-01  4.859833690000e-02  1.215963214414e-04  6.557348033635e-05 -3.318156964650e-05
H -8.516767667000e-01  3.762923407000e-01 -1.595132473000e-01  1.697114045851e-03 -2.440269836470e-05 -2.319825967408e-05
3
step 301
H  8.010435009000e-01  3.415505889000e-01 -1.745601248000e-01 -3.669812092180e-03 -9.686747056508e-04  5.234973368957e-04
O  1.247127700000e-03 -1.029621506000e-01  4.845552520000e-02  1.109897699617e-04  6.219969989225e-05 -3.143175692604e-05
H -8.438522601000e-01  3.761283527000e-01 -1.595955951000e-01  1.868819622591e-03 -4.716415508752e-05 -1.582614996435e-05
3
step 302
H  7.850586630000e-01  3.375185295000e-01 -1.723674650000e-01 -3.597476208825e-03 -8.543733578063e-04  4.686689467831e-04
O  1.706019400000e-03 -1.027003513000e-01  4.832328490000e-02  9.706744896580e-05  5.594397257230e-05 -2.826877405098e-05
H -8.353231652000e-01  3.758796182000e-01 -1.596517382000e-01  2.017462722071e-03 -6.233535431710e-05 -1.156435573463e-05
3
step 303
H  7.695628318000e-01  3.340741684000e-01 -1.704589130000e-01 -3.444216516423e-03 -6.986528199953e-04  3.929468634980e-04
O  2.096542100000e-03 -1.024725981000e-01  4.820815180000e-02  7.971584152177e-05  4.649711398129e-05 -2.354647151410e-05
H -8.261979178000e-01  3.755828707000e-01 -1.596967921000e-01  2.139608298346e-03 -6.826357198694e-05 -1.112145503082e-05
3
step 304
H  7.549191334000e-01  3.314047828000e-01 -1.689288794000e-01 -3.207554635098e-03 -4.995790121800e-04  2.953834944641e-04
O  2.403594000000e-03 -1.022934659000e-01  4.811723530000e-02  5.899116214311e-05  3.363006528969e-05 -1.715924026354e-05
H -8.165999557000e-01  3.752822597000e-01 -1.597490595000e-01  2.231888289329e-03 -6.322984525068e-05 -1.523828822083e-05
3
step 305
H  7.414942748000e-01  3.297024698000e-01 -1.678740814000e-01 -2.888875650604e-03 -2.572326313048e-04  1.760452201632e-04
O  2.612759900000e-03 -1.021783093000e-01  4.805799530000e-02  3.518057657881e-05  1.723936125821e-05 -9.064272613616e-06
H -8.066671878000e-01  3.750295612000e-01 -1.598301387000e-01  2.291132201944e-03 -4.549857271672e-05 -2.466705467944e-05
3
step 306
H  7.296392614000e-01  3.291538005000e-01 -1.673883490000e-01 -2.494371899231e-03  2.564204600308e-05  3.633273641183e-05
O  2.711450900000e-03 -1.021426083000e-01  4.803791600000e-02  8.850965549706e-06 -2.607612005008e-06  6.963414015214e-07
H -7.965507961000e-01  3.748841124000e-01 -1.599649151000e-01  2.314536057356e-03 -1.339173424460e-05 -4.013978183082e-05
3
step 307
H  7.196666124000e-01  3.299268573000e-01 -1.675561422000e-01 -2.035550612567e-03  3.431818569573e-04 -1.207960119874e-04
O  2.690212600000e-03 -1.022011279000e-01  4.806408880000e-02 -1.913212376566e-05 -2.563745211903e-05  1.197867379470e-05
H -7.864132266000e-01  3.749123732000e-01 -1.601813926000e-01  2.299867872432e-03  3.460960478710e-05 -6.232469924872e-05
3
step 308
H  7.118266362000e-01  3.321569043000e-01 -1.684454065000e-01 -1.529036686737e-03  6.863228123479e-04 -2.907899486695e-04
O  2.544030200000e-03 -1.023669557000e-01  4.814273850000e-02 -4.763181248389e-05 -5.135699077516e-05  2.453090658346e-05
H -7.764251927000e-01  3.751869729000e-01 -1.605103039000e-01  2.245705028699e-03  9.973384897357e-05 -9.176940705406e-05
3
step 309
H  7.062863716000e-01  3.359327070000e-01 -1.701007767000e-01 -9.955176203709e-04  1.043225627336e-03 -4.677230363453e-04
O  2.273397800000e-03 -1.026505408000e-01  4.827875300000e-02 -7.532198569592e-05 -7.907016540464e-05  3.800273896759e-05
H -7.667615895000e-01  3.757851207000e-01 -1.609844451000e-01  2.151682547784e-03  1.827650623321e-04 -1.288338554891e-04
3
step 310
H  7.031150954000e-01  3.412859267000e-01 -1.725383409000e-01 -4.579020390383e-04  1.400224461357e-03 -6.447729915172e-04
O  1.884905200000e-03 -1.030588801000e-01  4.847529160000e-02 -1.008179781834e-04 -1.079272537310e-04  5.197091195448e-05
H -7.575963243000e-01  3.767863070000e-01 -1.616376987000e-01  2.018726776120e-03  2.838763588693e-04 -1.736169204801e-04
3
step 311
H  7.022793784000e-01  3.481857423000e-01 -1.757430336000e-01  6.098542891845e-05  1.743156918406e-03 -8.148874342344e-04
O  1.391163300000e-03 -1.035949869000e-01  4.873353820000e-02 -1.228333607102e-04 -1.369986638897e-04  6.597672736440e-05
H -7.490961857000e-01  3.782692560000e-01 -1.625037260000e-01  1.849239126600e-03  4.024684218434e-04 -2.258844465003e-04
3
step 312
H  7.036487646000e-01  3.565398833000e-01 -1.796692294000e-01  5.406863985518e-04  2.058800703138e-03 -9.714992129774e-04
O  8.100193000000e-04 -1.042577232000e-01  4.905263840000e-02 -1.403292481106e-04 -1.653574734970e-04  7.956747506553e-05
H -7.414140672000e-01  3.803082137000e-01 -1.636143604000e-01  1.647182918978e-03  5.370409435757e-04 -2.850106734055e-04
3
step 313
H  7.070107981000e-01  3.662018235000e-01 -1.842443950000e-01  9.648889063742e-04  2.336112977648e-03 -1.109139260788e-03
O  1.631751000000e-04 -1.050419913000e-01  4.942981450000e-02 -1.526243833786e-04 -1.921531512044e-04  9.233289607145e-05
H -7.346820750000e-01  3.829687752000e-01 -1.649977874000e-01  1.418049170292e-03  6.851227572739e-04 -3.499448039288e-04
3
step 314
H  7.120922807000e-01  3.769826591000e-01 -1.893750465000e-01  1.322396281074e-03  2.567028737382e-03 -1.223827299394e-03
O -5.255608000000e-04 -1.059392103000e-01  4.986062190000e-02 -1.594443813618e-04 -2.166625785231e-04  1.039297655347e-04
H -7.290050521000e-01  3.863035620000e-01 -1.666766452000e-01  1.168671097943e-03  8.432861260689e-04 -4.192139702779e-04
3
step 315
H  7.185827772000e-01  3.886652889000e-01 -1.949538202000e-01  1.607245556020e-03  2.746736832712e-03 -1.313202438075e-03
O -1.232085300000e-03 -1.069379546000e-01  5.033927950000e-02 -1.609078282634e-04 -2.383143037032e-04  1.140929043553e-04
H -7.244553088000e-01  3.903481739000e-01 -1.686662304000e-01  9.068872622846e-04  1.007263423098e-03 -4.909712482233e-04
3
step 316
H  7.261569090000e-01  4.010187078000e-01 -2.008665725000e-01  1.818141169060e-03  2.873491683692e-03 -1.376424722844e-03
O -1.933627400000e-03 -1.080246428000e-01  5.085902210000e-02 -1.574618575598e-04 -2.566898901876e-04  1.226346855098e-04
H -7.210690947000e-01  3.951178875000e-01 -1.709730192000e-01  6.410892496030e-04  1.172162751510e-03 -5.630877496174e-04
3
step 317
H  7.344929035000e-01  4.138105395000e-01 -2.069985895000e-01  1.957476168102e-03  2.948101242536e-03 -1.413918166913e-03
O -2.609997000000e-03 -1.091841875000e-01  5.141242680000e-02 -1.497873057225e-04 -2.715102949459e-04  1.294370301794e-04
H -7.188452874000e-01  4.006054948000e-01 -1.735936790000e-01  3.796983258760e-04  1.332762058177e-03 -6.332802180953e-04
3
step 318
H  7.432863230000e-01  4.268168492000e-01 -2.132394381000e-01  2.030226044975e-03  2.973272728539e-03 -1.427043954125e-03
O -3.244380900000e-03 -1.104005656000e-01  5.199169510000e-02 -1.386963988778e-04 -2.826163456093e-04  1.344404692782e-04
H -7.177464439000e-01  4.067805752000e-01 -1.765147056000e-01  1.306453999549e-04  1.483845712268e-03 -6.992585636039e-04
3
step 319
H  7.522589346000e-01  4.398289505000e-01 -2.194863159000e-01  2.042917904412e-03  2.952954011379e-03 -1.417772147657e-03
O -3.823696600000e-03 -1.116572968000e-01  5.258888380000e-02 -1.250394626781e-04 -2.899489707713e-04  1.376331089888e-04
H -7.177020402000e-01  4.135902800000e-01 -1.797127264000e-01 -9.908357897240e-05  1.620538332060e-03 -7.588734929226e-04
3
step 320
H  7.611634176000e-01  4.526574559000e-01 -2.256460291000e-01  2.002790203811e-03  2.891763562673e-03 -1.388398775328e-03
O -4.338571900000e-03 -1.129378409000e-01  5.319609010000e-02 -1.096312190315e-04 -2.935316243813e-04  1.390410178891e-04
H -7.186135010000e-01  4.209615254000e-01 -1.831554292000e-01 -3.037839531179e-04  1.738592028391e-03 -8.102446858846e-04
3
step 321
H  7.697848811000e-01  4.651340940000e-01 -2.316358673000e-01  1.917175883733e-03  2.794547984944e-03 -1.341327814378e-03
O -4.783053600000e-03 -1.142259231000e-01  5.380559900000e-02 -9.320011167555e-05 -2.934553201958e-04  1.387202139384e-04
H -7.203603822000e-01  4.288042903000e-01 -1.868029873000e-01 -4.792225108957e-04  1.834594642460e-03 -8.518548214416e-04
3
step 322
H  7.779401733000e-01  4.771118888000e-01 -2.373836737000e-01  1.793092456322e-03  2.666069869780e-03 -1.278918285975e-03
O -5.154144200000e-03 -1.155057995000e-01  5.440999810000e-02 -7.635982409599e-05 -2.898655906330e-04  1.367500776247e-04
H -7.228070646000e-01  4.370156320000e-01 -1.906098107000e-01 -6.226796089532e-04  1.906082257126e-03 -8.826015548337e-04
3
step 323
H  7.854758119000e-01  4.884642451000e-01 -2.428273808000e-01  1.637000522412e-03  2.510808743229e-03 -1.203386714033e-03
O -5.451260500000e-03 -1.167624687000e-01  5.500226680000e-02 -5.959919583719e-05 -2.829507300869e-04  1.332276336075e-04
H -7.258093052000e-01  4.454839683000e-01 -1.945264261000e-01 -7.328643201619e-04  1.951557467314e-03 -9.018076789863e-04
3
step 324
H  7.922651803000e-01  4.990833862000e-01 -2.479142281000e-01  1.454689216978e-03  2.332851598805e-03 -1.116753319629e-03
O -5.675682700000e-03 -1.179818348000e-01  5.557584180000e-02 -4.328569648394e-05 -2.729311170029e-04  1.282626002936e-04
H -7.292201880000e-01  4.540932529000e-01 -1.985013178000e-01 -8.097407253766e-04  1.970430761139e-03 -9.091969803358e-04
3
step 325
H  7.982054554000e-01  5.088784813000e-01 -2.525998267000e-01  1.251250442239e-03  2.135849358435e-03 -1.020820866283e-03
O -5.830043400000e-03 -1.191508248000e-01  5.612466270000e-02 -2.767781314986e-05 -2.600494593029e-04  1.219730930700e-04
H -7.328951560000e-01  4.627267450000e-01 -2.024825953000e-01 -8.543027628359e-04  1.962907144676e-03 -9.048454110983e-04
3
step 326
H  8.032145789000e-01  5.177737021000e-01 -2.568471916000e-01  1.031111838498e-03  1.923019715639e-03 -9.171767306311e-04
O -5.917884700000e-03 -1.202574665000e-01  5.664319970000e-02 -1.294222840402e-05 -2.445621962796e-04  1.144819400545e-04
H -7.366959908000e-01  4.712701922000e-01 -2.064194074000e-01 -8.683329921112e-04  1.929842863061e-03 -8.891187221519e-04
3
step 327
H  8.072284729000e-01  5.257063750000e-01 -2.606258247000e-01  7.981044125050e-04  1.697179598977e-03 -8.072095775432e-04
O -5.943297800000e-03 -1.212909311000e-01  5.712646720000e-02  8.273516610036e-07 -2.267321438110e-04  1.059136652165e-04
H -7.404937340000e-01  4.796143465000e-01 -2.102630643000e-01 -8.541722691027e-04  1.872593893733e-03 -8.626060779834e-04
3
step 328
H  8.101986031000e-01  5.326253220000e-01 -2.639108930000e-01  5.555469140887e-04  1.460794031778e-03 -6.921339522543e-04
O -5.910644800000e-03 -1.222415463000e-01  5.757002530000e-02  1.359212358082e-05 -2.068225611648e-04  9.639201545050e-05
H -7.441706516000e-01  4.876568213000e-01 -2.139678705000e-01 -8.145180036782e-04  1.792872361280e-03 -8.260568622136e-04
3
step 329
H  8.120899334000e-01  5.384894404000e-01 -2.666825263000e-01  3.063359814114e-04  1.216033238006e-03 -5.730187304509e-04
O -5.824356300000e-03 -1.231007868000e-01  5.796997110000e-02  2.535202336104e-05 -1.850927673820e-04  8.603822815625e-05
H -7.476213897000e-01  4.953033513000e-01 -2.174916938000e-01 -7.522590815354e-04  1.692620697010e-03 -7.803248699057e-04
3
step 330
H  8.128792774000e-01  5.432665432000e-01 -2.689252452000e-01  5.303577884848e-05  9.648325912980e-04 -4.508168208159e-04
O -5.688795200000e-03 -1.238612496000e-01  5.832292560000e-02  3.613198139330e-05 -1.617953209517e-04  7.496993876264e-05
H -7.507534941000e-01  5.024685474000e-01 -2.207963101000e-01 -6.703494295424e-04  1.573908484541e-03 -7.263224007221e-04
3
step 331
H  8.125540370000e-01  5.469324637000e-01 -2.706275184000e-01 -2.020357111287e-04  7.089528291345e-04 -3.263949041430e-04
O -5.508173900000e-03 -1.245166196000e-01  5.862601540000e-02  4.597082399714e-05 -1.371747993465e-04  6.330076933519e-05
H -7.534874601000e-01  5.090762546000e-01 -2.238475705000e-01 -5.717181401672e-04  1.438853307867e-03 -6.649848471629e-04
3
step 332
H  8.111113103000e-01  5.494704228000e-01 -2.717814504000e-01 -4.567243957192e-04  4.500395173504e-04 -2.005627564871e-04
O -5.286515300000e-03 -1.250616340000e-01  5.887685570000e-02  5.491241019491e-05 -1.114679224405e-04  5.114056626954e-05
H -7.557564652000e-01  5.150596146000e-01 -2.266154362000e-01 -4.592115199732e-04  1.289564532270e-03 -5.972454213476e-04
3
step 333
H  8.085573491000e-01  5.508706538000e-01 -2.723825960000e-01 -7.089615643707e-04  1.896816918664e-04 -7.410211064067e-05
O -5.027648200000e-03 -1.254920492000e-01  5.907353450000e-02  6.299864260860e-05 -8.490500609599e-05  3.859619565049e-05
H -7.575059122000e-01  5.203609309000e-01 -2.290739249000e-01 -3.355614809545e-04  1.128107453744e-03 -5.240189735724e-04
3
step 334
H  8.049073542000e-01  5.511302828000e-01 -2.724299005000e-01 -9.566884439481e-04 -7.052986983455e-05  5.220467894377e-05
O -4.735229000000e-03 -1.258046178000e-01  5.921460200000e-02  7.026407821674e-05 -5.771248080099e-05  2.577281399803e-05
H -7.586928849000e-01  5.249314179000e-01 -2.312010032000e-01 -2.033751185899e-04  9.564849463122e-04 -4.461935770464e-04
3
step 335
H  8.001855933000e-01  5.502534635000e-01 -2.719257651000e-01 -1.197781430413e-03 -3.289442766687e-04  1.775459666606e-04
O -4.412783800000e-03 -1.259970776000e-01  5.929906640000e-02  7.673141674887e-05 -3.011610967315e-05  1.277547726952e-05
H -7.592856001000e-01  5.287309059000e-01 -2.329784600000e-01 -6.513720762445e-05  7.766299975361e-04 -3.646270173411e-04
3
step 336
H  7.944258504000e-01  5.482517687000e-01 -2.708762375000e-01 -1.429978467833e-03 -5.837902869320e-04  3.010512823331e-04
O -4.063770400000e-03 -1.260681568000e-01  5.932639720000e-02  8.240795356713e-05 -2.345189235500e-06 -2.888524586442e-07
H -7.592628853000e-01  5.317275246000e-01 -2.343917685000e-01  7.677315024278e-05  5.904119799683e-04 -2.801494253030e-04
3
step 337
H  7.876721877000e-01  5.451448519000e-01 -2.692913360000e-01 -1.650805367965e-03 -8.331145719841e-04  4.217611258546e-04
O -3.691651100000e-03 -1.260175998000e-01  5.929653870000e-02  8.728242108528e-05  2.536271956868e-05 -1.330905347375e-05
H -7.586137763000e-01  5.338974624000e-01 -2.354299818000e-01  2.200594609473e-04  3.996502133947e-04 -1.935691599680e-04
3
step 338
H  7.799800405000e-01  5.409613788000e-01 -2.671855050000e-01 -1.857502852066e-03 -1.074720441605e-03  5.385969903808e-04
O -3.299982400000e-03 -1.258462136000e-01  5.920993280000e-02  9.132204045501e-05  5.275690494594e-05 -2.616754062820e-05
H -7.573371967000e-01  5.352247697000e-01 -2.360856468000e-01  3.624818791857e-04  2.061306948006e-04 -1.056801587758e-04
3
step 339
H  7.714176167000e-01  5.357402258000e-01 -2.645782003000e-01 -2.046953071600e-03 -1.306104356977e-03  6.503303890381e-04
O -2.892513400000e-03 -1.255559365000e-01  5.906755270000e-02  9.446978351969e-05  7.956812872266e-05 -3.873771470543e-05
H -7.554417825000e-01  5.357012637000e-01 -2.363547640000e-01  5.018273230289e-04  1.162833642623e-05 -1.727178813727e-05
3
step 340
H  7.620676351000e-01  5.295319664000e-01 -2.614946165000e-01 -2.215607280849e-03 -1.524393312156e-03  7.555522747399e-04
O -2.473299500000e-03 -1.251499316000e-01  5.887094820000e-02  9.664152963437e-05  1.055032416730e-04 -5.088142092776e-05
H -7.529458237000e-01  5.353265265000e-01 -2.362367881000e-01  6.358817872001e-04 -1.820704533505e-04  7.086114601247e-05
3
step 341
H  7.520293579000e-01  5.224006180000e-01 -2.579665398000e-01 -2.359423972608e-03 -1.726290470828e-03  8.526464779379e-04
O -2.046826100000e-03 -1.246327024000e-01  5.862230130000e-02  9.772382586160e-05  1.302402239527e-04 -6.244652631113e-05
H -7.498773304000e-01  5.341080080000e-01 -2.357346748000e-01  7.624034517113e-04 -3.731439732376e-04  1.579077294324e-04
3
step 342
H  7.414208702000e-01  5.144256041000e-01 -2.540333075000e-01 -2.473825439699e-03 -1.908036600535e-03  9.397707871333e-04
O -1.618141300000e-03 -1.240102300000e-01  5.832449330000e-02  9.757246995245e-05  1.534242174455e-04 -7.326494040958e-05
H -7.462742102000e-01  5.320612313000e-01 -2.348549747000e-01  8.791004620925e-04 -5.597133520844e-04  2.430311575736e-04
3
step 343
H  7.303814927000e-01  5.057038381000e-01 -2.497428265000e-01 -2.553687947254e-03 -2.065400967191e-03  1.014852460127e-03
O -1.192992300000e-03 -1.232901231000e-01  5.798117710000e-02  9.601292631021e-05  1.746655510794e-04 -8.315153198137e-05
H -7.421845288000e-01  5.292100879000e-01 -2.336079662000e-01  9.836135594811e-04 -7.398226329088e-04  3.253597306528e-04
3
step 344
H  7.190741470000e-01  4.963517655000e-01 -2.451525721000e-01 -2.593385486609e-03 -2.193718986639e-03  1.075606421283e-03
O -7.779547000000e-04 -1.224817728000e-01  5.759685370000e-02  9.284362627321e-05  1.935410755664e-04 -9.190470493866e-05
H -7.376668390000e-01  5.255872172000e-01 -2.320078281000e-01  1.073508300731e-03 -9.114247352676e-04  4.039804496402e-04
3
step 345
H  7.076873857000e-01  4.865071186000e-01 -2.403304474000e-01 -2.586911995472e-03 -2.287997495454e-03  1.119586850166e-03
O -3.805396000000e-04 -1.215964907000e-01  5.717694060000e-02  8.784354230969e-05  2.096004531386e-04 -9.930943351066e-05
H -7.327905098000e-01  5.212344242000e-01 -2.300728283000e-01  1.146279432888e-03 -1.072375499206e-03  4.779361227988e-04
3
step 346
H  6.964366879000e-01  4.763300369000e-01 -2.353553306000e-01 -2.528111340101e-03 -2.343111775998e-03  1.144283890796e-03
O -9.256500000000e-06 -1.206476085000e-01  5.672782020000e-02  8.078569540830e-05  2.223790935602e-04 -1.051437485337e-04
H -7.276360170000e-01  5.162031112000e-01 -2.278255214000e-01  1.199369977234e-03 -1.220438297424e-03  5.462272078087e-04
3
step 347
H  6.855644773000e-01  4.660030980000e-01 -2.303170879000e-01 -2.411043509571e-03 -2.354117561143e-03  1.147276730833e-03
O  3.263971000000e-04 -1.196505035000e-01  5.625685240000e-02  7.145799896985e-05  2.314193637010e-04 -1.091892645307e-04
H -7.222951049000e-01  5.105546554000e-01 -2.252929223000e-01  1.230208803145e-03 -1.353302497665e-03  6.078197059342e-04
3
step 348
H  6.753382126000e-01  4.557297072000e-01 -2.253157815000e-01 -2.230511006322e-03 -2.316696618163e-03  1.126451685372e-03
O  6.160557000000e-04 -1.186225120000e-01  5.577233060000e-02  5.969264138112e-05  2.363012637121e-04 -1.112462321095e-04
H -7.168707488000e-01  5.043606790000e-01 -2.225066339000e-01  1.236270028614e-03 -1.468619263012e-03  6.616607858002e-04
3
step 349
H  6.660457996000e-01  4.457302302000e-01 -2.204597739000e-01 -1.982755320120e-03 -2.227737845363e-03  1.080286368666e-03
O  8.487533000000e-04 -1.175826866000e-01  5.528336270000e-02  4.540428153244e-05  2.366828394921e-04 -1.111531248218e-04
H -7.114767964000e-01  4.977031133000e-01 -2.195028842000e-01  1.215159467546e-03 -1.564060166194e-03  7.067045594249e-04
3
step 350
H  6.579875867000e-01  4.362352968000e-01 -2.158624493000e-01 -1.666294450258e-03 -2.086019566701e-03  1.008183790626e-03
O  1.013377900000e-03 -1.165513561000e-01  5.479965580000e-02  2.863540713749e-05  2.323481236383e-04 -1.088097000034e-04
H -7.062371738000e-01  4.906739559000e-01 -2.163224284000e-01  1.164728539801e-03 -1.637400217751e-03  7.419487692971e-04
3
step 351
H  6.514644483000e-01  4.274759630000e-01 -2.116373944000e-01 -1.282811015331e-03 -1.892905484658e-03  9.108140640899e-04
O  1.099335100000e-03 -1.155494628000e-01  5.433119460000e-02  9.603164924462e-06  2.232573436280e-04 -1.042012023732e-04
H -7.012845306000e-01  4.833746087000e-01 -2.130102648000e-01  1.083215890811e-03 -1.686627173050e-03  7.664833647009e-04
3
step 352
H  6.467620089000e-01  4.196709256000e-01 -2.078921294000e-01 -8.379319107830e-04 -1.652911007860e-03  7.903937403972e-04
O  1.097412900000e-03 -1.145976835000e-01  5.388781550000e-02 -1.126204616689e-05  2.095907671284e-04 -9.741945475981e-05
H -6.967582060000e-01  4.759146778000e-01 -2.096151125000e-01  9.694136993230e-04 -1.710076190228e-03  7.795504096202e-04
3
step 353
H  6.441319030000e-01  4.130117271000e-01 -2.047208445000e-01 -3.416876790284e-04 -1.373961596492e-03  6.508151832218e-04
O  1.000783600000e-03 -1.137153832000e-01  5.347869980000e-02 -3.329907251556e-05  1.917747385764e-04 -8.867542386034e-05
H -6.928014191000e-01  4.684101337000e-01 -2.061886024000e-01  8.228518715829e-04 -1.706584984622e-03  7.806133749662e-04
3
step 354
H  6.437719803000e-01  4.076477105000e-01 -2.021969987000e-01  1.915634839045e-04 -1.067180278018e-03  4.975456676786e-04
O  8.060205000000e-04 -1.129195078000e-01  5.311183770000e-02 -5.563259865424e-05  1.704788999939e-04 -7.829774379800e-05
H -6.895576226000e-01  4.609807536000e-01 -2.027841483000e-01  6.439877893138e-04 -1.675659373156e-03  7.694311709612e-04
3
step 355
H  6.458082301000e-01  4.036730833000e-01 -2.003669393000e-01  7.438833704321e-04 -7.461279696055e-04  3.372580594724e-04
O  5.139558000000e-04 -1.122235624000e-01  5.279353470000e-02 -7.723124504668e-05  1.465786171294e-04 -6.671415774476e-05
H -6.871660332000e-01  4.537468322000e-01 -1.994554909000e-01  4.343835330791e-04 -1.617633036368e-03  7.461297340227e-04
3
step 356
H  6.502815289000e-01  4.011185199000e-01 -1.992457326000e-01  1.295150896401e-03 -4.255637510886e-04  1.772251032865e-04
O  1.301880000000e-04 -1.116368328000e-01  5.252803780000e-02 -9.700444190336e-05  1.210852027022e-04 -5.441715749703e-05
H -6.857564344000e-01  4.468252269000e-01 -1.962549423000e-01  1.968462265825e-04 -1.533799589153e-03  7.112613952864e-04
3
step 357
H  6.571417913000e-01  3.999490749000e-01 -1.988160840000e-01  1.824894110049e-03 -1.199450509621e-04  2.458414535713e-05
O -3.349073000000e-04 -1.111639743000e-01  5.231734290000e-02 -1.139224415453e-04  9.505616882088e-05 -4.191983647852e-05
H -6.854434781000e-01  4.403249124000e-01 -1.932314096000e-01 -6.449893200313e-05 -1.426488862087e-03  6.658394421562e-04
3
step 358
H  6.662507485000e-01  4.000689089000e-01 -1.990306026000e-01  2.314201078645e-03  1.580183117637e-04 -1.143742191873e-04
O -8.667205000000e-04 -1.108050186000e-01  5.216120720000e-02 -1.271354714149e-04  6.950377897876e-05 -2.971097023913e-05
H -6.863208494000e-01  4.343423580000e-01 -1.904283378000e-01 -3.442318451522e-04 -1.299062732657e-03  6.113367378532e-04
3
step 359
H  6.773928212000e-01  4.013318560000e-01 -1.998169459000e-01  2.747324909294e-03  3.984557349760e-04 -2.347460305501e-04
O -1.447440000000e-03 -1.105557630000e-01  5.205734920000e-02 -1.360664436835e-04  4.532015631645e-05 -1.821837508730e-05
H -6.884557701000e-01  4.289571196000e-01 -1.878817454000e-01 -6.357718813810e-04 -1.155817684631e-03  5.496426897496e-04
3
step 360
H  6.902919433000e-01  4.035557015000e-01 -2.010848099000e-01  3.112705108781e-03  5.948961318991e-04 -3.332945980152e-04
O -2.057406000000e-03 -1.104084326000e-01  5.200178240000e-02 -1.404587910698e-04  2.322943866224e-05 -7.785696405160e-06
H -6.918843397000e-01  4.242280691000e-01 -1.856185437000e-01 -9.316383233332e-04 -1.001782370902e-03  4.829733280881e-04
3
step 361
H  7.046313723000e-01  4.065376523000e-01 -2.027335287000e-01  3.403311910035e-03  7.442798934766e-04 -4.084623023435e-04
O -2.676561800000e-03 -1.103524877000e-01  5.198921840000e-02 -1.403745835753e-04  3.769009887452e-06  1.336358584860e-06
H -6.966083182000e-01  4.201907575000e-01 -1.836553593000e-01 -1.223821297633e-03 -8.424268412000e-04  4.137419961452e-04
3
step 362
H  7.200735262000e-01  4.100687199000e-01 -2.046591676000e-01  3.616388159841e-03  8.465369092672e-04 -4.601684785879e-04
O -3.285791000000e-03 -1.103754508000e-01  5.201347660000e-02 -1.361503266350e-04 -1.270518398700e-05  8.986766247482e-06
H -7.025937124000e-01  4.168561897000e-01 -1.819979847000e-01 -1.504219876009e-03 -6.833217078905e-04  3.444078251940e-04
3
step 363
H  7.362775354000e-01  4.139454978000e-01 -2.067603549000e-01  3.752776138840e-03  9.039154946907e-04 -4.894828252198e-04
O -3.867981300000e-03 -1.104636678000e-01  5.206785950000e-02 -1.283250816877e-04 -2.599891080082e-05  1.508380572792e-05
H -7.097713929000e-01  4.142111698000e-01 -1.806415274000e-01 -1.765107570592e-03 -5.297827027670e-04  2.773177460320e-04
3
step 364
H  7.529131885000e-01  4.179786721000e-01 -2.089425168000e-01  3.816045902886e-03  9.202408741481e-04 -4.982619707633e-04
O -4.408733600000e-03 -1.106029612000e-01  5.214547140000e-02 -1.175588138870e-04 -3.605350139801e-05  1.961134586516e-05
H -7.180397540000e-01  4.122201857000e-01 -1.795712423000e-01 -1.999561919217e-03 -3.865518477853e-04  2.145650522047e-04
3
step 365
H  7.696708565000e-01  4.219983095000e-01 -2.111205283000e-01  3.811610135296e-03  9.002348062238e-04 -4.888146504984e-04
O -4.896710900000e-03 -1.107791635000e-01  5.223947380000e-02 -1.045555759602e-04 -4.291869771511e-05  2.260479384912e-05
H -7.272690895000e-01  4.108285454000e-01 -1.787639190000e-01 -2.201805004214e-03 -2.575551448203e-04  1.578821408125e-04
3
step 366
H  7.862676932000e-01  4.258564153000e-01 -2.132200189000e-01  3.745946025170e-03  8.489677641554e-04 -4.636313118171e-04
O -5.323674900000e-03 -1.109785327000e-01  5.234328060000e-02 -9.000085311509e-05 -4.672752126434e-05  2.413810435646e-05
H -7.373072323000e-01  4.099663812000e-01 -1.781896528000e-01 -2.367425668413e-03 -1.457563530235e-04  1.085761158553e-04
3
step 367
H  8.024507501000e-01  4.294274270000e-01 -2.151776570000e-01  3.625974928485e-03  7.714629110315e-04 -4.251880582228e-04
O -5.684287200000e-03 -1.111880650000e-01  5.245070070000e-02 -7.451683552231e-05 -4.767394822835e-05  2.431257138776e-05
H -7.479858753000e-01  4.095530658000e-01 -1.778137949000e-01 -2.493469203301e-03 -5.311265441262e-05  6.750970875767e-05
3
step 368
H  8.179977479000e-01  4.326073060000e-01 -2.169407397000e-01  3.458608067249e-03  6.724395370808e-04 -3.758186925180e-04
O -5.975754300000e-03 -1.113957162000e-01  5.255603420000e-02 -5.863561380169e-05 -4.599353743977e-05  2.324734338247e-05
H -7.591269954000e-01  4.095016048000e-01 -1.775988911000e-01 -2.578404812436e-03  1.938043576893e-05  3.512181600222e-05
3
step 369
H  8.327162167000e-01  4.353117874000e-01 -2.184663581000e-01  3.250444014234e-03  5.561698310529e-04 -3.176422934222e-04
O -6.197393700000e-03 -1.115905437000e-01  5.265413270000e-02 -4.278796171737e-05 -4.194710266594e-05  2.107171189322e-05
H -7.705488900000e-01  4.097226594000e-01 -1.775064522000e-01 -2.621996543876e-03  7.157789705806e-05  1.147726392088e-05
3
step 370
H  8.464416198000e-01  4.374742176000e-01 -2.197203528000e-01  3.007591899291e-03  4.264195345494e-04 -2.525320183001e-04
O -6.350181700000e-03 -1.117627854000e-01  5.274042780000e-02 -2.730416353398e-05 -3.580739720170e-05  1.791894526776e-05
H -7.820714712000e-01  4.101279662000e-01 -1.774984563000e-01 -2.625111165265e-03  1.040349266257e-04 -3.666431427767e-06
3
step 371
H  8.590349468000e-01  4.390432846000e-01 -2.206762065000e-01  2.735590218738e-03  2.864467215598e-04 -1.821127993623e-04
O -6.436326000000e-03 -1.119038858000e-01  5.281093720000e-02 -1.242291838101e-05 -2.784875591787e-05  1.392159877336e-05
H -7.935206211000e-01  4.106330446000e-01 -1.775385362000e-01 -2.589495554723e-03  1.178425742195e-04 -1.078633918861e-05
3
step 372
H  8.703801271000e-01  4.399808455000e-01 -2.213139791000e-01  2.439393364532e-03  1.390373473529e-04 -1.077777170914e-04
O -6.458891700000e-03 -1.120064833000e-01  5.286225250000e-02  1.695230064290e-06 -1.833944792994e-05  9.208127464325e-06
H -8.047315384000e-01  4.111591788000e-01 -1.775928451000e-01 -2.517551358264e-03  1.144687800623e-04 -1.052416782570e-05
3
step 373
H  8.803815050000e-01  4.402599677000e-01 -2.216193439000e-01  2.123403356358e-03 -1.343885241057e-05 -3.071495559913e-05
O -6.421491400000e-03 -1.120643700000e-01  5.289151530000e-02  1.495270404786e-05 -7.536447340960e-06  3.900660090981e-06
H -8.155511215000e-01  4.116347340000e-01 -1.776306308000e-01 -2.412127606783e-03  9.561808083329e-05 -3.624579087101e-06
3
step 374
H  8.889615310000e-01  4.398632453000e-01 -2.215827584000e-01  1.791530384901e-03 -1.689629776805e-04  4.806026873636e-05
O -6.328044100000e-03 -1.120724330000e-01  5.289638620000e-02  2.729982105652e-05  4.317734481475e-06 -1.886207651993e-06
H -8.258395003000e-01  4.119959102000e-01 -1.776245629000e-01 -2.276343414993e-03  6.311622775619e-05  9.115486421482e-06
3
step 375
H  8.960587664000e-01  4.387814124000e-01 -2.211987798000e-01  1.447269975389e-03 -3.257992945055e-04  1.276724758908e-04
O -6.182597100000e-03 -1.120265866000e-01  5.287500960000e-02  3.872101216580e-05  1.699636079053e-05 -8.045819947129e-06
H -8.354708679000e-01  4.121870493000e-01 -1.775508633000e-01 -2.113446425793e-03  1.882160920103e-05  2.688580011333e-05
3
step 376
H  9.016262505000e-01  4.370122522000e-01 -2.204655266000e-01  1.093788941220e-03 -4.824292339463e-04  2.073534450330e-04
O -5.989205600000e-03 -1.119237018000e-01  5.282597910000e-02  4.922273623957e-05  3.028836432645e-05 -1.447918202140e-05
H -8.443337735000e-01  4.121606137000e-01 -1.773892916000e-01 -1.926707694897e-03 -3.543781580154e-05  4.889060070821e-05
3
step 377
H  9.056302565000e-01  4.345597875000e-01 -2.193842785000e-01  7.340155017947e-04 -6.374886272784e-04  2.864113143699e-04
O -5.751860500000e-03 -1.117615402000e-01  5.274830560000e-02  5.882335052990e-05  4.399694858175e-05 -2.109418764235e-05
H -8.523310342000e-01  4.118769413000e-01 -1.771230331000e-01 -1.719350154222e-03 -9.790516314934e-05  7.436648066850e-05
3
step 378
H  9.080494477000e-01  4.314337390000e-01 -2.179592085000e-01  3.707314161781e-04 -7.897086163006e-04  3.642012991349e-04
O -5.474456300000e-03 -1.115386949000e-01  5.264138890000e-02  6.754467712880e-05  5.793728400260e-05 -2.780437579822e-05
H -8.593794027000e-01  4.113038686000e-01 -1.767385280000e-01 -1.494506206460e-03 -1.669168342981e-04  1.025920493543e-04
3
step 379
H  9.088744400000e-01  4.276492330000e-01 -2.161972385000e-01  6.665547487566e-06 -9.378596033794e-04  4.400979180167e-04
O -5.160792900000e-03 -1.112545447000e-01  5.250499610000e-02  7.540500015188e-05  7.193345911256e-05 -3.452743140045e-05
H -8.654091069000e-01  4.104162913000e-01 -1.762252742000e-01 -1.255199440961e-03 -2.409103281499e-04  1.328912195930e-04
3
step 380
H  9.081077763000e-01  4.232267499000e-01 -2.141080150000e-01 -3.554108402949e-04 -1.080697578427e-03  5.134681977874e-04
O -4.814604800000e-03 -1.109092221000e-01  5.233924750000e-02  8.241315539803e-05  8.581488768389e-05 -4.118336144320e-05
H -8.703633581000e-01  4.091957189000e-01 -1.755756281000e-01 -1.004345918188e-03 -3.184211098983e-04  1.646317220955e-04
3
step 381
H  9.057643232000e-01  4.181923024000e-01 -2.117039990000e-01 -7.125873090702e-04 -1.216911881182e-03  5.836456184382e-04
O -4.439614700000e-03 -1.105035987000e-01  5.214461010000e-02  8.856341536802e-05  9.941234108442e-05 -4.769260259732e-05
H -8.741979021000e-01  4.076298630000e-01 -1.747846206000e-01 -7.447694095332e-04 -3.980719788152e-04  1.972203287302e-04
3
step 382
H  9.018720922000e-01  4.125778400000e-01 -2.090006693000e-01 -1.061711485321e-03 -1.345071020808e-03  6.499030435456e-04
O -4.039607200000e-03 -1.100392880000e-01  5.192190070000e-02  9.383077653374e-05  1.125534046748e-04 -5.397377683519e-05
H -8.768806602000e-01  4.057122846000e-01 -1.738497994000e-01 -4.792288326287e-04 -4.785553189455e-04  2.300950360642e-04
3
step 383
H  8.964735354000e-01  4.064219019000e-01 -2.060168501000e-01 -1.399288099798e-03 -1.463572138590e-03  7.114273922011e-04
O -3.618523700000e-03 -1.095186703000e-01  5.167229830000e-02  9.816688198039e-05  1.250580301975e-04 -5.994154304712e-05
H -8.783915210000e-01  4.034421378000e-01 -1.727711130000e-01 -2.104548058674e-04 -5.586126894630e-04  2.627161609986e-04
3
step 384
H  8.896272508000e-01  3.997704640000e-01 -2.027751354000e-01 -1.721378004346e-03 -1.570591293435e-03  7.672945806298e-04
O -3.180571900000e-03 -1.089449346000e-01  5.139736640000e-02  1.014962594497e-04  1.367339738898e-04 -6.550434352414e-05
H -8.787223008000e-01  4.008239962000e-01 -1.715508320000e-01  5.880965115627e-05 -6.370123077823e-04  2.945565313406e-04
3
step 385
H  8.814101610000e-01  3.926780265000e-01 -1.993024355000e-01 -2.023495406035e-03 -1.664031813805e-03  8.164434353292e-04
O -2.730353700000e-03 -1.083221434000e-01  5.109908520000e-02  1.037125822383e-04  1.473719146250e-04 -7.056201330982e-05
H -8.778768916000e-01  3.978677927000e-01 -1.701935180000e-01  3.257654506074e-04 -7.125233923730e-04  3.250903279221e-04
3
step 386
H  8.719201179000e-01  3.852089126000e-01 -1.956306307000e-01 -2.300518521828e-03 -1.741480548407e-03  8.576533087401e-04
O -2.273007400000e-03 -1.076553176000e-01  5.077989480000e-02  1.046759631485e-04  1.567410063012e-04 -7.500357239333e-05
H -8.758716038000e-01  3.945888714000e-01 -1.687060429000e-01  5.875111410299e-04 -7.838899890488e-04  3.537816661693e-04
3
step 387
H  8.612788639000e-01  3.774387394000e-01 -1.917973129000e-01 -2.546624907664e-03 -1.800176097539e-03  8.895278063839e-04
O -1.814359000000e-03 -1.069505397000e-01  5.044274650000e-02  1.042116746004e-04  1.645851204558e-04 -7.870542472410e-05
H -8.727357196000e-01  3.910081556000e-01 -1.670976578000e-01  8.409985180846e-04 -8.498049572417e-04  3.800731822435e-04
3
step 388
H  8.496352017000e-01  3.694559945000e-01 -1.878465819000e-01 -2.755270683131e-03 -1.836998354579e-03  9.104894433300e-04
O -1.361075600000e-03 -1.062150718000e-01  5.009116210000e-02  1.021112548208e-04  1.706205470376e-04 -8.153028859096e-05
H -8.685122234000e-01  3.871524278000e-01 -1.653801118000e-01  1.082993487400e-03 -9.088851218886e-04  4.033750534298e-04
3
step 389
H  8.371681375000e-01  3.613635984000e-01 -1.838298337000e-01 -2.919239062083e-03 -1.848492494739e-03  9.187918534138e-04
O -9.208074000000e-04 -1.054574794000e-01  4.972929410000e-02  9.813759082716e-05  1.745359578389e-04 -8.332745717089e-05
H -8.632586980000e-01  3.830547155000e-01 -1.635678175000e-01  1.310043774822e-03 -9.596485417052e-04  4.230549555865e-04
3
step 390
H  8.240896265000e-01  3.532802710000e-01 -1.798064502000e-01 -3.030791521132e-03 -1.830944077074e-03  9.125578887625e-04
O -5.022966000000e-04 -1.046877487000e-01  4.936198310000e-02  9.203559635139e-05  1.759960861734e-04 -8.393485092092e-05
H -8.570483381000e-01  3.787547689000e-01 -1.616780573000e-01  1.518460244625e-03 -1.000496517615e-03  4.384298398641e-04
3
step 391
H  8.106463930000e-01  3.453414370000e-01 -1.758442540000e-01 -3.081960002675e-03 -1.780524828308e-03  8.898535516168e-04
O -1.154255000000e-04 -1.039173790000e-01  4.899480000000e-02  8.355059194695e-05  1.746504895392e-04 -8.318361146224e-05
H -8.499710092000e-01  3.742996055000e-01 -1.597312210000e-01  1.704317608012e-03 -1.029702992536e-03  4.487609091447e-04
3
step 392
H  7.971201186000e-01  3.376993165000e-01 -1.720195509000e-01 -3.065020002671e-03 -1.693529879230e-03  8.488079107036e-04
O  2.288350000000e-04 -1.031594233000e-01  4.863406280000e-02  7.245634368018e-05  1.701488854199e-04 -8.090589518442e-05
H -8.421342552000e-01  3.697440799000e-01 -1.577510560000e-01  1.863482342967e-03 -1.045415374162e-03  4.532535403342e-04
3
step 393
H  7.838251230000e-01  3.305217549000e-01 -1.684165354000e-01 -2.973176448957e-03 -1.566724550378e-03  7.877877328234e-04
O  5.186230000000e-04 -1.024284460000e-01  4.828681150000e-02  5.859423684803e-05  1.621642806919e-04 -7.694633281496e-05
H -8.336641130000e-01  3.651514212000e-01 -1.557649057000e-01  1.991677602863e-03 -1.045671639756e-03  4.510642597526e-04
3
step 394
H  7.711025501000e-01  3.239892781000e-01 -1.651258055000e-01 -2.801467558221e-03 -1.397806144801e-03  7.056294077158e-04
O  7.415794000000e-04 -1.017403617000e-01  4.796072360000e-02  4.192317332962e-05  1.504244111604e-04 -7.117741550250e-05
H -8.247055524000e-01  3.605936531000e-01 -1.538038987000e-01  2.084594479874e-03 -1.028439336166e-03  4.413171485569e-04
3
step 395
H  7.593101386000e-01  3.182898817000e-01 -1.622417382000e-01 -2.547834721884e-03 -1.185957316819e-03  6.019164552242e-04
O  8.854828000000e-04 -1.011121173000e-01  4.766395470000e-02  2.257628891286e-05  1.347505541661e-04 -6.351842801862e-05
H -8.154223165000e-01  3.561517902000e-01 -1.519030430000e-01  2.138061617579e-03 -9.916839212824e-04  4.231330241892e-04
3
step 396
H  7.488070470000e-01  3.136112443000e-01 -1.598585760000e-01 -2.214224370906e-03 -9.324253950875e-04  4.772693650964e-04
O  9.391392000000e-04 -1.005611913000e-01  4.740488870000e-02  9.156776525592e-07  1.151000300122e-04 -5.395622865521e-05
H -8.059958776000e-01  3.519156601000e-01 -1.501011610000e-01  2.148277588351e-03 -9.334706934068e-04  3.956730799901e-04
3
step 397
H  7.399339814000e-01  3.101304461000e-01 -1.580652662000e-01 -1.807501025089e-03 -6.410146229851e-04  3.335917743175e-04
O  8.934957000000e-04 -1.001049040000e-01  4.719179640000e-02 -2.242880923623e-05  9.160588763700e-05 -4.256447040105e-05
H -7.966232441000e-01  3.479832074000e-01 -1.484406009000e-01  2.112108467348e-03 -8.521043539096e-04  3.581988936659e-04
3
step 398
H  7.329900302000e-01  3.080018759000e-01 -1.569393928000e-01 -1.339893320374e-03 -3.183453908045e-04  1.742003666097e-04
O  7.428700000000e-04 -9.975956970000e-02  4.703241700000e-02 -4.655397758088e-05  6.460459590732e-05 -2.951678836017e-05
H -7.875133126000e-01  3.444590951000e-01 -1.469666466000e-01  2.027445579511e-03 -7.463072864985e-04  3.101493577054e-04
3
step 399
H  7.282088897000e-01  3.073446804000e-01 -1.565408797000e-01 -8.287116975182e-04  2.625905719794e-05  3.767862559196e-06
O  4.861128000000e-04 -9.953956440000e-02  4.693350190000e-02 -7.032596994813e-05  3.464242477465e-05 -1.508913554762e-05
H -7.788815442000e-01  3.414524477000e-01 -1.457265567000e-01  1.893600825004e-03 -6.154302267986e-04  2.512321502390e-04
3
step 400
H  7.257381689000e-01  3.082316627000e-01 -1.569064211000e-01 -2.952116923427e-04  3.813332137877e-04 -1.719592871286e-04
O  1.274639000000e-04 -9.945642200000e-02  4.690037560000e-02 -9.247630296133e-05  2.454235701087e-06  3.518686631458e-07
H -7.709428567000e-01  3.390736098000e-01 -1.447681731000e-01  1.711694727569e-03 -4.596743960734e-04  1.815207734114e-04
3
step 401
H  7.256255616000e-01  3.106816378000e-01 -1.580456550000e-01  2.373040103233e-04  7.342401312972e-04 -3.466496131846e-04
O -3.231256000000e-04 -9.951808790000e-02  4.693658100000e-02 -1.117417499271e-04 -3.108467413016e-05  1.637401977597e-05
H -7.639029058000e-01  3.374299451000e-01 -1.441381111000e-01  1.484978660067e-03 -2.802988522379e-04  1.015458505423e-04
3
step 402
H  7.278147605000e-01  3.146568256000e-01 -1.599398705000e-01  7.458112430126e-04  1.072388394078e-03 -5.139985697004e-04
O -8.503619000000e-04 -9.972843670000e-02  4.704366080000e-02 -1.270227498420e-04 -6.502541397049e-05  3.251373775226e-05
H -7.579481573000e-01  3.366207804000e-01 -1.438795693000e-01  1.219023070306e-03 -7.977829091868e-05  1.236572566733e-05
3
step 403
H  7.321519805000e-01  3.200658567000e-01 -1.625435357000e-01  1.209823015279e-03  1.384439455223e-03 -6.683345428557e-04
O -1.434671800000e-03 -1.000871100000e-01  4.722110110000e-02 -1.375238979662e-04 -9.841797774027e-05  4.831256667684e-05
H -7.532355213000e-01  3.367318240000e-01 -1.440299015000e-01  9.216883681587e-04  1.381390578943e-04 -8.440570803753e-05
3
step 404
H  7.384016375000e-01  3.267717300000e-01 -1.657883091000e-01  1.613119565858e-03  1.661258872255e-03 -8.050950469973e-04
O -2.053801200000e-03 -1.005896693000e-01  4.746643270000e-02 -1.428452338412e-04 -1.303755355504e-04  6.334880170694e-05
H -7.498826789000e-01  3.378296028000e-01 -1.446181838000e-01  6.028434278892e-04  3.685013620187e-04 -1.866264572848e-04
3
step 405
H  7.462680108000e-01  3.346031427000e-01 -1.695887333000e-01  1.944677899682e-03  1.896457466664e-03 -9.210957799713e-04
O -2.684676900000e-03 -1.012279957000e-01  4.777545160000e-02 -1.430065957326e-04 -1.601219724028e-04  7.726005167085e-05
H -7.479601801000e-01  3.399564928000e-01 -1.456630258000e-01  2.738225042078e-04  6.053702058190e-04 -2.917181280861e-04
3
step 406
H  7.554190569000e-01  3.433671837000e-01 -1.738486018000e-01  2.198758427161e-03  2.086484403773e-03 -1.014574450148e-03
O -3.305218300000e-03 -1.019908590000e-01  4.814251720000e-02 -1.384049409327e-04 -1.870198857427e-04  8.975534772356e-05
H -7.474865225000e-01  3.431270552000e-01 -1.471709406000e-01 -5.333766331053e-05  8.421765042309e-04 -3.968189226611e-04
3
step 407
H  7.655088292000e-01  3.528614775000e-01 -1.784670360000e-01  2.374320544421e-03  2.230352830438e-03 -1.085051282335e-03
O -3.895826000000e-03 -1.028645628000e-01  4.856087960000e-02 -1.297225732132e-04 -2.105812313849e-04  1.006184024903e-04
H -7.484269255000e-01  3.473261816000e-01 -1.491354950000e-01 -3.667679592920e-04  1.072167430541e-03 -4.989775013442e-04
3
step 408
H  7.761961781000e-01  3.628844773000e-01 -1.833436306000e-01  2.474046810058e-03  2.329141806597e-03 -1.133078941351e-03
O -4.440390100000e-03 -1.038336059000e-01  4.902300520000e-02 -1.178122180165e-04 -2.304658973525e-04  1.097048994465e-04
H -7.506960228000e-01  3.525093405000e-01 -1.515373755000e-01 -6.556151841081e-04  1.288880244671e-03 -5.953598307845e-04
3
step 409
H  7.871586316000e-01  3.732432503000e-01 -1.883823435000e-01  2.503240723791e-03  2.385415574334e-03 -1.159951736887e-03
O -4.926773100000e-03 -1.048813157000e-01  4.952088140000e-02 -1.035833958193e-04 -2.464724429726e-04  1.169363174575e-04
H -7.541640599000e-01  3.586048698000e-01 -1.543453490000e-01 -9.107429434511e-04  1.486571023697e-03 -6.834374372003e-04
3
step 410
H  7.981014495000e-01  3.837586886000e-01 -1.934940958000e-01  2.468797490743e-03  2.402670367386e-03 -1.167428737997e-03
O -5.346824000000e-03 -1.059904284000e-01  5.004628750000e-02 -8.790854691177e-05 -2.585240292494e-04  1.222918217736e-04
H -7.586657203000e-01  3.655179743000e-01 -1.575179759000e-01 -1.125194698133e-03  1.660538427818e-03 -7.611307858433e-04
3
step 411
H  8.087624984000e-01  3.942684541000e-01 -1.985982382000e-01  2.378357937700e-03  2.384871781880e-03 -1.157502401329e-03
O -5.696040100000e-03 -1.071435988000e-01  5.059102840000e-02 -7.155783938322e-05 -2.666511632297e-04  1.257990945459e-04
H -7.640103744000e-01  3.731358514000e-01 -1.610058257000e-01 -1.294384481126e-03  1.807309197290e-03 -8.268927434145e-04
3
step 412
H  8.189139010000e-01  4.046281412000e-01 -2.036231273000e-01  2.239681345090e-03  2.336106006829e-03 -1.132224085809e-03
O -5.973009900000e-03 -1.083238301000e-01  5.114712580000e-02 -5.516367051183e-05 -2.709723854062e-04  1.275247448075e-04
H -7.699925748000e-01  3.813333124000e-01 -1.647539200000e-01 -1.416034269893e-03  1.924681476629e-03 -8.797300938982e-04
3
step 413
H  8.283614236000e-01  4.147111689000e-01 -2.085060651000e-01  2.060223504450e-03  2.260340439346e-03 -1.093584127128e-03
O -6.178764400000e-03 -1.095148145000e-01  5.170696740000e-02 -3.921024938964e-05 -2.716741480480e-04  1.275646590320e-04
H -7.764017576000e-01  3.899782868000e-01 -1.687041370000e-01 -1.489917048853e-03  2.011647719645e-03 -9.191723458599e-04
3
step 414
H  8.369424329000e-01  4.244078493000e-01 -2.131928251000e-01  1.846884763310e-03  2.161276415235e-03 -1.043438198464e-03
O -6.316129500000e-03 -1.107011867000e-01  5.226341410000e-02 -2.404106598381e-05 -2.689913791858e-04  1.260350007767e-04
H -7.830304888000e-01  3.989367690000e-01 -1.727973813000e-01 -1.517484942471e-03  2.068235421076e-03 -9.452041269296e-04
3
step 415
H  8.445230783000e-01  4.336239910000e-01 -2.176369476000e-01  1.605887361630e-03  2.042273599604e-03 -9.834697274855e-04
O -6.389142100000e-03 -1.118686948000e-01  5.280987010000e-02 -9.877294098999e-06 -2.631898932923e-04  1.230643348008e-04
H -7.896809118000e-01  4.080769290000e-01 -1.769753963000e-01 -1.501453553309e-03  2.095303769800e-03 -9.581777400181e-04
3
step 416
H  8.509951759000e-01  4.422793057000e-01 -2.217989376000e-01  1.342744389949e-03  1.906326030098e-03 -9.151781488044e-04
O -6.402563400000e-03 -1.130042996000e-01  5.334032120000e-02  3.159001508883e-06 -2.545515857204e-04  1.187870447831e-04
H -7.961693561000e-01  4.172722800000e-01 -1.811821695000e-01 -1.445400621121e-03  2.094330798871e-03 -9.587208422466e-04
3
step 417
H  8.562731189000e-01  4.503058022000e-01 -2.256454566000e-01  1.062289295372e-03  1.756073096516e-03 -8.398845994794e-04
O -6.361498500000e-03 -1.140962159000e-01  5.384934760000e-02  1.502091751223e-05 -2.433626348768e-04  1.133382000567e-04
H -8.023292730000e-01  4.264039258000e-01 -1.853649371000e-01 -1.353415699196e-03  2.067215167424e-03 -9.476497553833e-04
3
step 418
H  8.602910199000e-01  4.576462888000e-01 -2.291485704000e-01  7.687425728827e-04  1.593832557349e-03 -7.587486946914e-04
O -6.271118900000e-03 -1.151339089000e-01  5.433211720000e-02  2.571476650195e-05 -2.299049406851e-04  1.068498987860e-04
H -8.080127788000e-01  4.353619942000e-01 -1.894748299000e-01 -1.229818016742e-03  2.016106561789e-03 -9.258946335293e-04
3
step 419
H  8.630002046000e-01  4.642530565000e-01 -2.322850882000e-01  4.657979932318e-04  1.421645738114e-03 -6.727913783178e-04
O -6.136474600000e-03 -1.161080600000e-01  5.478436600000e-02  3.528132662693e-05 -2.144503605185e-04  9.944884532127e-05
H -8.130911216000e-01  4.440464006000e-01 -1.934672235000e-01 -1.078945644749e-03  1.943270434172e-03 -8.944395552138e-04
3
step 420
H  8.643671087000e-01  4.700867766000e-01 -2.350360097000e-01  1.567172278089e-04  1.241328649174e-03 -5.829205526910e-04
O -5.962380300000e-03 -1.170105136000e-01  5.520237070000e-02  4.378076176963e-05 -1.972575643317e-04  9.125517544417e-05
H -8.174543787000e-01  4.523670972000e-01 -1.973018603000e-01 -9.050111474644e-04  1.850988139390e-03 -8.542782164107e-04
3
step 421
H  8.643716002000e-01  4.751156318000e-01 -2.373860890000e-01 -1.555742648860e-04  1.054525105658e-03 -4.899576591316e-04
O -5.753359400000e-03 -1.178342146000e-01  5.558291860000e-02  5.128100199062e-05 -1.785710701741e-04  8.238219124822e-05
H -8.210106615000e-01  4.602439629000e-01 -2.009428115000e-01 -7.120140517640e-04  1.741489361350e-03 -8.063839171629e-04
3
step 422
H  8.630057149000e-01  4.793146781000e-01 -2.393235140000e-01 -4.683940496757e-04  8.627595685630e-04 -3.946640116459e-04
O -5.513632300000e-03 -1.185731471000e-01  5.592327790000e-02  5.784915913631e-05 -1.586219892672e-04  7.293688680704e-05
H -8.236850464000e-01  4.676064615000e-01 -2.043583365000e-01 -5.036981217425e-04  1.616911494884e-03 -7.516914054555e-04
3
step 423
H  8.602727939000e-01  4.826654381000e-01 -2.408397010000e-01 -7.792130539738e-04  6.674895698783e-04 -2.977668289359e-04
O -5.247135000000e-03 -1.192222784000e-01  5.622117220000e-02  6.354531023962e-05 -1.376301103938e-04  6.302109093156e-05
H -8.254184054000e-01  4.743931755000e-01 -2.075206864000e-01 -2.835426509040e-04  1.479280749118e-03 -6.910881968322e-04
3
step 424
H  8.561870045000e-01  4.851557225000e-01 -2.419292016000e-01 -1.085569860993e-03  4.701578314605e-04 -1.999851064221e-04
O -4.957562200000e-03 -1.197775159000e-01  5.647476060000e-02  6.841810019015e-05 -1.158071224737e-04  5.273301217784e-05
H -8.261662615000e-01  4.805512998000e-01 -2.104058870000e-01 -5.477854304236e-05  1.330510401335e-03 -6.254134499214e-04
3
step 425
H  8.507732271000e-01  4.867796789000e-01 -2.425897237000e-01 -1.384987338748e-03  2.722440182218e-04 -1.020552962849e-04
O -4.648424300000e-03 -1.202356793000e-01  5.668262630000e-02  7.250143230931e-05 -9.336037652003e-05  4.216908097169e-05
H -8.258977596000e-01  4.860361594000e-01 -2.129935325000e-01  1.795811898549e-04  1.172408869419e-03 -5.554611890126e-04
3
step 426
H  8.440673057000e-01  4.875380659000e-01 -2.428222635000e-01 -1.674893616110e-03  7.531773463903e-05 -4.757453749170e-06
O -4.323119200000e-03 -1.205944906000e-01  5.684377240000e-02  7.581222854611e-05 -7.049752066298e-05  3.142616655768e-05
H -8.245947887000e-01  4.908107743000e-01 -2.152665973000e-01  4.166981628174e-04  1.006699883799e-03 -4.819889890103e-04
3
step 427
H  8.361166266000e-01  4.874387666000e-01 -2.426313550000e-01 -1.952544411879e-03 -1.189067920274e-04  9.105783041320e-05
O -3.985009300000e-03 -1.208525865000e-01  5.695762940000e-02  7.834877019368e-05 -4.743166998323e-05  2.060399050244e-05
H -8.222513318000e-01  4.948455536000e-01 -2.172113049000e-01  6.538573858001e-04  8.350500598987e-04 -4.057299332466e-04
3
step 428
H  8.269810483000e-01  4.864975405000e-01 -2.420254378000e-01 -2.214947507678e-03 -3.085158411024e-04  1.844424242444e-04
O -3.637507500000e-03 -1.210095540000e-01  5.702407300000e-02  8.008908431608e-05 -2.438659920089e-05  9.807553910976e-06
H -8.188730363000e-01  4.981181012000e-01 -2.188170446000e-01  8.884177640112e-04  6.590963928735e-04 -3.274046261443e-04
3
step 429
H  8.167341414000e-01  4.847390170000e-01 -2.410173427000e-01 -2.458792468383e-03 -4.913404959383e-04  2.743233381320e-04
O -3.284168600000e-03 -1.210659879000e-01  5.704345300000e-02  8.098975985177e-05 -1.602310188684e-06 -8.502388027372e-07
H -8.144769967000e-01  5.006131513000e-01 -2.200763459000e-01  1.117760129885e-03  4.804793152935e-04 -2.477357565155e-04
3
step 430
H  8.054647331000e-01  4.821979353000e-01 -2.396248987000e-01 -2.680385692370e-03 -6.649018189938e-04  3.594758563012e-04
O -2.928785100000e-03 -1.210235754000e-01  5.701663280000e-02  8.098514768360e-05  2.065921767369e-05 -1.124595614514e-05
H -8.090917800000e-01  5.023226628000e-01 -2.209849220000e-01  1.339234721958e-03  3.008785202956e-04 -1.674639316058e-04
3
step 431
H  7.932787159000e-01  4.789206174000e-01 -2.378716539000e-01 -2.875598178369e-03 -8.263612973097e-04  4.384993149325e-04
O -2.575486600000e-03 -1.208852039000e-01  5.694504230000e-02  7.998700409854e-05  4.210860625926e-05 -2.124308433794e-05
H -8.027576683000e-01  5.032460685000e-01 -2.215417834000e-01  1.550113371910e-03  1.220486887461e-04 -8.736364826894e-05
3
step 432
H  7.803010491000e-01  4.749666417000e-01 -2.357876942000e-01 -3.039833989938e-03 -9.724833052196e-04  5.097988591853e-04
O -2.228837700000e-03 -1.206550929000e-01  5.683073960000e-02  7.788529071774e-05  6.242424711624e-05 -3.068978294294e-05
H -7.955271021000e-01  5.033906822000e-01 -2.217494208000e-01  1.747544507351e-03 -5.414342600201e-05 -8.259881230809e-06
3
step 433
H  7.666778429000e-01  4.704106445000e-01 -2.334105239000e-01 -3.168033665447e-03 -1.099619731979e-03  5.715783032509e-04
O -1.893930700000e-03 -1.203389440000e-01  5.667648320000e-02  7.455067484930e-05  8.124904232442e-05 -3.941735356733e-05
H -7.874653169000e-01  5.027722721000e-01 -2.216140637000e-01  1.928516222483e-03 -2.256841074454e-04  6.895616514476e-05
3
step 434
H  7.525783308000e-01  4.653441278000e-01 -2.307859468000e-01 -3.254730012062e-03 -1.203730702242e-03  6.218509774041e-04
O -1.576462200000e-03 -1.199441016000e-01  5.648580760000e-02  6.983968560896e-05  9.818972798287e-05 -4.723988332341e-05
H -7.786511097000e-01  5.014157736000e-01 -2.211460016000e-01  2.089830913459e-03 -3.903822465909e-04  1.433131792124e-04
3
step 435
H  7.381964652000e-01  4.598770799000e-01 -2.279688521000e-01 -3.294175294615e-03 -1.280458777569e-03  6.584769133231e-04
O -1.282780000000e-03 -1.194797088000e-01  5.626309810000e-02  6.360370513389e-05  1.128200556461e-04 -5.395578983644e-05
H -7.691776976000e-01  4.993561288000e-01 -2.203599637000e-01  2.228093375420e-03 -5.458447086809e-04  2.137483647542e-04
3
step 436
H  7.237517768000e-01  4.541391339000e-01 -2.250237700000e-01 -3.280561399224e-03 -1.325275704742e-03  6.792355051652e-04
O -1.019881100000e-03 -1.189568398000e-01  5.601365310000e-02  5.570235255535e-05  1.246895641284e-04 -5.935209972761e-05
H -7.591535881000e-01  4.966392148000e-01 -2.192755398000e-01  2.339721777544e-03 -6.894646542142e-04  2.791017500487e-04
3
step 437
H  7.094890432000e-01  4.482799036000e-01 -2.220250218000e-01 -3.208355086254e-03 -1.333722746751e-03  6.819437026613e-04
O -7.953418000000e-04 -1.183885797000e-01  5.574372180000e-02  4.602228464057e-05  1.333393404119e-04 -6.321215993984e-05
H -7.487033421000e-01  4.933227856000e-01 -2.179176099000e-01  2.420986146528e-03 -8.184267042090e-04  3.381178974358e-04
3
step 438
H  6.956762152000e-01  4.424680395000e-01 -2.190562409000e-01 -3.072765195189e-03 -1.301761513834e-03  6.646282063456e-04
O -6.171509000000e-04 -1.177900186000e-01  5.546049840000e-02  3.450189763298e-05  1.383262552411e-04 -6.532754069708e-05
H -7.379681071000e-01  4.894773550000e-01 -2.163167496000e-01  2.468082604677e-03 -9.297363776287e-04  3.894584325069e-04
3
step 439
H  6.825999969000e-01  4.368884944000e-01 -2.162090165000e-01 -2.870340681484e-03 -1.226239728465e-03  6.257538361600e-04
O -4.934238000000e-04 -1.171781192000e-01  5.517205590000e-02  2.116109836348e-05  1.392563499188e-04 -6.551421694658e-05
H -7.271057311000e-01  4.851868810000e-01 -2.145095507000e-01  2.477253267989e-03 -1.020283505266e-03  4.317296942588e-04
3
step 440
H  6.705585383000e-01  4.317375038000e-01 -2.135804161000e-01 -2.599669101777e-03 -1.105453402487e-03  5.644990730763e-04
O -4.319751000000e-04 -1.165714190000e-01  5.488719890000e-02  6.134265939850e-06  1.358265743706e-04 -6.363274488053e-05
H -7.162902458000e-01  4.805490938000e-01 -2.125387845000e-01  2.444957774012e-03 -1.086946746320e-03  4.635287607836e-04
3
step 441
H  6.598509034000e-01  4.272149314000e-01 -2.112692177000e-01 -2.262101121973e-03 -9.397479045626e-04  4.810502733721e-04
O -4.397443000000e-04 -1.159895327000e-01  5.461522070000e-02 -1.029862868843e-05  1.278719967315e-04 -5.961081996370e-05
H -7.057104800000e-01  4.756752654000e-01 -2.104533194000e-01  2.368101074502e-03 -1.126746946413e-03  4.835113153352e-04
3
step 442
H  6.507634229000e-01  4.235139906000e-01 -2.093708581000e-01 -1.862376236250e-03 -7.320543338397e-04  3.768637851409e-04
O -5.220960000000e-04 -1.154524412000e-01  5.436555860000e-02 -2.769022806437e-05  1.154122724257e-04 -5.346533214788e-05
H -6.955675497000e-01  4.706891960000e-01 -2.083076905000e-01  2.244315760454e-03 -1.137052888748e-03  4.904831491857e-04
3
step 443
H  6.435536865000e-01  4.208088960000e-01 -2.079713713000e-01 -1.408991521100e-03 -4.882241055609e-04  2.548288094816e-04
O -6.820550000000e-04 -1.149795870000e-01  5.414735810000e-02 -4.542289933318e-05  9.868877006371e-05 -4.531973121076e-05
H -6.860710001000e-01  4.657251828000e-01 -2.061612166000e-01  2.072287747906e-03 -1.115836494648e-03  4.835141265180e-04
3
step 444
H  6.384336691000e-01  4.192416562000e-01 -2.071409111000e-01 -9.141554999334e-04 -2.170218293979e-04  1.192630534493e-04
O -9.195811000000e-04 -1.145888389000e-01  5.396897630000e-02 -6.273319381796e-05  7.818257215368e-05 -3.541204434056e-05
H -6.774334465000e-01  4.609247730000e-01 -2.040765720000e-01  1.852102131132e-03 -1.061963988958e-03  4.620687558668e-04
3
step 445
H  6.355541265000e-01  4.189097890000e-01 -2.069277284000e-01 -3.932241375405e-04  7.031746783436e-05 -2.430469093392e-05
O -1.231018400000e-03 -1.142954297000e-01  5.383747570000e-02 -7.876794268645e-05  5.460549303003e-05 -2.408977029681e-05
H -6.698636895000e-01  4.564321854000e-01 -2.021177614000e-01  1.585570724289e-03 -9.754948499070e-04  4.261408572011e-04
3
step 446
H  6.349926571000e-01  4.198569878000e-01 -2.073535957000e-01  1.363733699905e-04  3.609638496280e-04 -1.695633503301e-04
O -1.608860900000e-03 -1.141109991000e-01  5.375817240000e-02 -9.266819475481e-05  2.886150851131e-05 -1.179043425331e-05
H -6.635584896000e-01  4.523884468000e-01 -2.003475135000e-01  1.276489099512e-03 -8.579455894704e-04  3.763730531906e-04
3
step 447
H  6.367474978000e-01  4.220684988000e-01 -2.084115374000e-01  6.565738111482e-04  6.416766405305e-04 -3.099992222610e-04
O -2.041936000000e-03 -1.140428694000e-01  5.373430030000e-02 -1.036679324279e-04  1.983159175095e-06  9.899157330257e-07
H -6.586934333000e-01  4.489245051000e-01 -1.988242093000e-01  9.307633918324e-04 -7.124646135123e-04  3.141368627746e-04
3
step 448
H  6.407381802000e-01  4.254721493000e-01 -2.100663261000e-01  1.150228276195e-03  9.000745276662e-04 -4.395176441812e-04
O -2.516034600000e-03 -1.140936449000e-01  5.376683490000e-02 -1.111878143601e-04 -2.494671936998e-05  1.373492252386e-05
H -6.554135978000e-01  4.461538363000e-01 -1.975985756000e-01  5.563477674951e-04 -5.438605027402e-04  2.415473238831e-04
3
step 449
H  6.468128752000e-01  4.299448395000e-01 -2.122576531000e-01  1.602469484470e-03  1.125738412880e-03 -5.529831108247e-04
O -3.014914500000e-03 -1.142611723000e-01  5.385449140000e-02 -1.149036174711e-04 -5.087415756282e-05  2.594612455901e-05
H -6.538249647000e-01  4.441653096000e-01 -1.967104854000e-01  1.629622863473e-04 -3.584471736720e-04  1.613954930533e-04
3
step 450
H  6.547610142000e-01  4.353232217000e-01 -2.149053514000e-01  2.001673181477e-03  1.310953482711e-03 -6.465832698081e-04
O -3.521529200000e-03 -1.145388328000e-01  5.399388330000e-02 -1.147751304196e-04 -7.484270874407e-05  3.717549701128e-05
H -6.539875532000e-01  4.430171493000e-01 -1.961862415000e-01 -2.384101581793e-04 -1.636930384545e-04  7.699278361070e-05
3
step 451
H  6.643290469000e-01  4.414166854000e-01 -2.179157514000e-01  2.339902740007e-03  1.451002215920e-03 -7.179735809819e-04
O -4.019284700000e-03 -1.149161033000e-01  5.417980550000e-02 -1.110311789126e-04 -9.604435213395e-05  4.704894687497e-05
H -6.559112360000e-01  4.427328703000e-01 -1.960367396000e-01 -6.362044149913e-04  3.229710755034e-05 -8.060095270403e-06
3
step 452
H  6.752369533000e-01  4.480206012000e-01 -2.211881695000e-01  2.612860496966e-03  1.544039224142e-03 -7.662176690747e-04
O -4.493137000000e-03 -1.153792943000e-01  5.440559760000e-02 -1.041181513490e-04 -1.138500090213e-04  5.527965122827e-05
H -6.595548285000e-01  4.432997737000e-01 -1.962567735000e-01 -1.019039828864e-03  2.213935568728e-04 -9.014663236897e-05
3
step 453
H  6.871935752000e-01  4.549282099000e-01 -2.246207422000e-01  2.819470637847e-03  1.590666964416e-03 -7.915812297127e-04
O -4.930398100000e-03 -1.159123779000e-01  5.466354470000e-02 -9.462661095044e-05 -1.278214731490e-04  6.167244542100e-05
H -6.648286141000e-01  4.446702333000e-01 -1.968255916000e-01 -1.376465647266e-03  3.960543769373e-04 -1.659090915523e-04
3
step 454
H  6.999094784000e-01  4.619401540000e-01 -2.281151109000e-01  2.961248531867e-03  1.593355447065e-03 -7.952491284407e-04
O -5.321192200000e-03 -1.164978300000e-01  5.494527870000e-02 -8.321264663785e-05 -1.377077950301e-04  6.612090218714e-05
H -6.715999560000e-01  4.467655525000e-01 -1.977086050000e-01 -1.699578767492e-03  5.498441578486e-04 -2.324813325627e-04
3
step 455
H  7.131067654000e-01  4.688712890000e-01 -2.315797804000e-01  3.041603060403e-03  1.555835157343e-03 -7.790288689351e-04
O -5.658572500000e-03 -1.171174265000e-01  5.524215320000e-02 -7.052789057903e-05 -1.434296855972e-04  6.859896209088e-05
H -6.797012285000e-01  4.494817903000e-01 -1.988599811000e-01 -1.981438502684e-03  6.777890076388e-04 -2.876484450593e-04
3
step 456
H  7.265258322000e-01  4.755549020000e-01 -2.349322095000e-01  3.065179901833e-03  1.482552773887e-03 -7.450843945641e-04
O -5.938365200000e-03 -1.177529495000e-01  5.554557210000e-02 -5.716687364868e-05 -1.450555594399e-04  6.914885686830e-05
H -6.889390588000e-01  4.526967249000e-01 -2.002257490000e-01 -2.217248732758e-03  7.765380238635e-04 -3.299196199616e-04
3
step 457
H  7.399294345000e-01  4.818447600000e-01 -2.380998389000e-01  3.037306800615e-03  1.378235046845e-03 -6.957223333635e-04
O -6.158826300000e-03 -1.183867736000e-01  5.584725860000e-02 -4.363458026521e-05 -1.427726687573e-04  6.786699866109e-05
H -6.991038513000e-01  4.562770921000e-01 -2.017470302000e-01 -2.404322318948e-03  8.443414623677e-04 -3.585187514137e-04
3
step 458
H  7.531045904000e-01  4.876155131000e-01 -2.410203122000e-01  2.963563145490e-03  1.247570827964e-03 -6.332356962737e-04
O -6.320201100000e-03 -1.190023195000e-01  5.613946020000e-02 -3.033231934042e-05 -1.368565917402e-04  6.488933443995e-05
H -7.099787185000e-01  4.600853587000e-01 -2.033630624000e-01 -2.541875361795e-03  8.808860385431e-04 -3.733107152300e-04
3
step 459
H  7.658628793000e-01  4.927619592000e-01 -2.436411358000e-01  2.849471685580e-03  1.095001123233e-03 -5.598002976252e-04
O -6.424257300000e-03 -1.195843735000e-01  5.641508990000e-02 -1.755786598137e-05 -1.276419368466e-04  6.037756892346e-05
H -7.213472053000e-01  4.639855189000e-01 -2.050137846000e-01 -2.630714158799e-03  8.870413952103e-04 -3.746878428217e-04
3
step 460
H  7.780396476000e-01  4.971976106000e-01 -2.459189930000e-01  2.700296138940e-03  9.245976360744e-04 -4.774142941389e-04
O -6.473845900000e-03 -1.201192841000e-01  5.666781010000e-02 -5.515097219353e-06 -1.154964479230e-04  5.450718391134e-05
H -7.329994800000e-01  4.678476495000e-01 -2.066418676000e-01 -2.672876657489e-03  8.645713050121e-04 -3.634406799249e-04
3
step 461
H  7.894925364000e-01  5.008528959000e-01 -2.478188761000e-01  2.520924297638e-03  7.400091034620e-04 -3.878710284435e-04
O -6.472518600000e-03 -1.205950558000e-01  5.689206950000e-02  5.671312132224e-06 -1.007999043351e-04  4.745780255549e-05
H -7.447369210000e-01  4.715511792000e-01 -2.081941686000e-01 -2.671278100115e-03  8.158517522055e-04 -3.406319267660e-04
3
step 462
H  8.000996638000e-01  5.036732564000e-01 -2.493131613000e-01  2.315816512258e-03  5.444560346702e-04 -2.927556510852e-04
O -6.424217600000e-03 -1.210013604000e-01  5.708310220000e-02  1.593927835875e-05 -8.392813607946e-05  3.940606769696e-05
H -7.563752071000e-01  4.749869765000e-01 -2.096226576000e-01 -2.629393963373e-03  7.436229406312e-04 -3.074856591758e-04
3
step 463
H  8.097577026000e-01  5.056173028000e-01 -2.503807120000e-01  2.089001513977e-03  3.407570906795e-04 -1.934574988739e-04
O -6.333037700000e-03 -1.213294912000e-01  5.723690270000e-02  2.527306340771e-05 -6.524201217521e-05  3.052079657531e-05
H -7.677461298000e-01  4.780584489000e-01 -2.108849033000e-01 -2.550997951595e-03  6.507884884130e-04 -2.652977729911e-04
3
step 464
H  8.183800253000e-01  5.066551417000e-01 -2.510060624000e-01  1.844104517256e-03  1.313746253384e-04 -9.119197182748e-05
O -6.203058900000e-03 -1.215722779000e-01  5.735018250000e-02  3.368866588027e-05 -4.508079895880e-05  2.096015136173e-05
H -7.786983908000e-01  4.806818737000e-01 -2.119442161000e-01 -2.439960432665e-03  5.402646662828e-04 -2.153687213650e-04
3
step 465
H  8.258950279000e-01  5.067669313000e-01 -2.511787115000e-01  1.584395316203e-03 -8.153015603112e-05  1.297270345374e-05
O -6.038236100000e-03 -1.217239826000e-01  5.742032010000e-02  4.122154781868e-05 -2.375897407692e-05  1.087037755506e-05
H -7.890976503000e-01  4.827861780000e-01 -2.127695444000e-01 -2.300104372896e-03  4.148762421160e-04 -1.589570776832e-04
3
step 466
H  8.322446964000e-01  5.059416904000e-01 -2.508925413000e-01  1.312848293040e-03 -2.960384909092e-04  1.180869002855e-04
O -5.842338800000e-03 -1.217801872000e-01  5.744530670000e-02  4.791681613620e-05 -1.565888230359e-06  3.858039817459e-07
H -7.988260637000e-01  4.843123582000e-01 -2.133352121000e-01 -2.135111374960e-03  2.772920568496e-04 -9.725083864552e-05
3
step 467
H  8.373834549000e-01  5.041763680000e-01 -2.501453608000e-01  1.032209177981e-03 -5.104151847258e-04  2.232908721251e-04
O -5.618927400000e-03 -1.217376853000e-01  5.742369620000e-02  5.382157985672e-05  2.123263496586e-05 -1.037022928522e-05
H -8.077815082000e-01  4.852126957000e-01 -2.136205637000e-01 -1.948469005924e-03  1.299923690523e-04 -3.135298895592e-05
3
step 468
H  8.412773165000e-01  5.014751671000e-01 -2.489385754000e-01  7.450659230363e-04 -7.230512170218e-04  3.277866407430e-04
O -5.371358800000e-03 -1.215943854000e-01  5.735455920000e-02  5.897926375487e-05  4.439118154080e-05 -2.128381677653e-05
H -8.158766582000e-01  4.854498909000e-01 -2.136095747000e-01 -1.743450817280e-03 -2.473969747081e-05  3.772219663950e-05
3
step 469
H  8.439033517000e-01  4.978491167000e-01 -2.472769770000e-01  4.539221904426e-04 -9.324084365703e-04  4.308108305991e-04
O -5.102813700000e-03 -1.213492285000e-01  5.723744650000e-02  6.342526587848e-05  6.768071094905e-05 -3.224851294204e-05
H -8.230380367000e-01  4.849962044000e-01 -2.132904656000e-01 -1.523121094249e-03 -1.848094732945e-04  1.090451628444e-04
3
step 470
H  8.452494829000e-01  4.933158799000e-01 -2.451686510000e-01  1.612727152168e-04 -1.136966784277e-03  5.316087236814e-04
O -4.816339200000e-03 -1.210021274000e-01  5.707236010000e-02  6.718373497327e-05  9.088392104743e-05 -4.316309234662e-05
H -8.292051331000e-01  4.838326666000e-01 -2.126553461000e-01 -1.290358236587e-03 -3.482904160077e-04  1.817618769021e-04
3
step 471
H  8.453146113000e-01  4.878997875000e-01 -2.426249939000e-01 -1.303169029626e-04 -1.335170976698e-03  6.294079349517e-04
O -4.514904600000e-03 -1.205539247000e-01  5.685973640000e-02  7.026465416638e-05  1.137902245342e-04 -5.392918644820e-05
H -8.343296585000e-01  4.819483968000e-01 -2.116999101000e-01 -1.047887098620e-03 -5.133972965581e-04  2.550818159315e-04
3
step 472
H  8.441091103000e-01  4.816321124000e-01 -2.396608501000e-01 -4.181311026720e-04 -1.525382080561e-03  7.233944510114e-04
O -4.201469800000e-03 -1.200063758000e-01  5.660043850000e-02  7.266174743511e-05  1.361906613940e-04 -6.444886095249e-05
H -8.383749469000e-01  4.793400475000e-01 -2.104231851000e-01 -7.983247086721e-04 -6.784539963531e-04  3.282636230384e-04
3
step 473
H  8.416556443000e-01  4.745515273000e-01 -2.362947390000e-01 -6.992202858079e-04 -1.705827734261e-03  8.126879191191e-04
O -3.879058700000e-03 -1.193621522000e-01  5.629575950000e-02  7.435038607572e-05  1.578725873621e-04 -7.462211088905e-05
H -8.413156104000e-01  4.760114053000e-01 -2.088273523000e-01 -5.442304223965e-04 -8.418585708864e-04  4.005995292489e-04
3
step 474
H  8.379903978000e-01  4.667048147000e-01 -2.325492090000e-01 -9.703154810477e-04 -1.874554791997e-03  8.963180652531e-04
O -3.550847000000e-03 -1.186248699000e-01  5.594743790000e-02  7.528542660672e-05  1.786145269459e-04 -8.434443796607e-05
H -8.431373795000e-01  4.719731409000e-01 -2.069176327000e-01 -2.881571777214e-04 -1.002049209285e-03  4.714003102537e-04
3
step 475
H  8.331646415000e-01  4.581477387000e-01 -2.284512702000e-01 -1.227745631083e-03 -2.029387617710e-03  9.732037907958e-04
O -3.220253700000e-03 -1.177991384000e-01  5.555768120000e-02  7.539961090880e-05  1.981813281344e-04 -9.350456048482e-05
H -8.438372062000e-01  4.672427080000e-01 -2.047022389000e-01 -3.270886583421e-05 -1.157469206517e-03  5.399798226166e-04
3
step 476
H  8.272466843000e-01  4.489461205000e-01 -2.240329313000e-01 -1.467355419230e-03 -2.167888381122e-03  1.042133114859e-03
O -2.891042700000e-03 -1.168906317000e-01  5.512920150000e-02  7.460203035906e-05  2.163193308204e-04 -1.019821141121e-04
H -8.434236071000e-01  4.618443998000e-01 -2.021923962000e-01  2.194019138681e-04 -1.306531199657e-03  6.056392428674e-04
3
step 477
H  8.203241590000e-01  4.391770569000e-01 -2.193318082000e-01 -1.684438226154e-03 -2.287330687470e-03  1.101749589185e-03
O -2.567428800000e-03 -1.159061788000e-01  5.466525970000e-02  7.277752245525e-05  2.327524585712e-04 -1.096458097558e-04
H -8.419172716000e-01  4.558095605000e-01 -1.994024322000e-01  4.652956554391e-04 -1.447583305707e-03  6.676521705185e-04
3
step 478
H  8.125065611000e-01  4.289302270000e-01 -2.143917795000e-01 -1.873693971263e-03 -2.384691139389e-03  1.150547594561e-03
O -2.254183700000e-03 -1.148538696000e-01  5.416971670000e-02  6.978747988783e-05  2.471795857154e-04 -1.163521856736e-04
H -8.393519141000e-01  4.491769384000e-01 -1.963499289000e-01  7.018706415042e-04 -1.578877512934e-03  7.252507001399e-04
3
step 479
H  8.039279032000e-01  4.183091850000e-01 -2.092636365000e-01 -2.029229185849e-03 -2.456669650562e-03  1.186881994827e-03
O -1.956735000000e-03 -1.137431683000e-01  5.364708900000e-02  6.547317824906e-05  2.592739156835e-04 -1.219453286405e-04
H -8.357753665000e-01  4.419931743000e-01 -1.930559337000e-01  9.257507878207e-04 -1.698540737109e-03  7.776127138986e-04
3
step 480
H  7.947492533000e-01  4.074324881000e-01 -2.040056540000e-01 -2.144622872471e-03 -2.499750500957e-03  1.208997903422e-03
O -1.681243300000e-03 -1.125850245000e-01  5.310260180000e-02  5.966249544548e-05  2.686855362127e-04 -1.262581721210e-04
H -8.312508865000e-01  4.343134075000e-01 -1.895452227000e-01  1.133245276522e-03 -1.804552976564e-03  8.238522092618e-04
3
step 481
H  7.851608123000e-01  3.964344557000e-01 -1.986839799000e-01 -2.213085302499e-03 -2.510319387158e-03  1.215088045220e-03
O -1.434642500000e-03 -1.113919643000e-01  5.254223340000e-02  5.218170038146e-05  2.750481204754e-04 -1.291158514044e-04
H -8.258586034000e-01  4.262019552000e-01 -1.858465966000e-01  1.320321262502e-03 -1.894732940876e-03  8.630129132691e-04
3
step 482
H  7.753830638000e-01  3.854652729000e-01 -1.933727040000e-01 -2.227741323916e-03 -2.484851419649e-03  1.203385566705e-03
O -1.224613500000e-03 -1.101781430000e-01  5.197273930000e-02  4.287358623084e-05  2.779910814450e-04 -1.303417190785e-04
H -8.196970653000e-01  4.177330447000e-01 -1.819931995000e-01  1.482600180028e-03 -1.966736729839e-03  8.940675603104e-04
3
step 483
H  7.656663714000e-01  3.746901047000e-01 -1.881534356000e-01 -2.182068256742e-03 -2.420181618014e-03  1.172298460787e-03
O -1.059465800000e-03 -1.089593297000e-01  5.140164370000e-02  3.162284421843e-05  2.771581942680e-04 -1.297666059346e-04
H -8.128847175000e-01  4.089915041000e-01 -1.780228214000e-01  1.615393378477e-03 -2.018078476233e-03  9.159268330580e-04
3
step 484
H  7.562882971000e-01  3.642868322000e-01 -1.831141956000e-01 -2.070507080741e-03 -2.313863741283e-03  1.120588284892e-03
O -9.478894000000e-04 -1.077527967000e-01  5.083718230000e-02  1.838934071045e-05  2.722331483151e-04 -1.272414461490e-04
H -8.055611374000e-01  4.000733141000e-01 -1.739781390000e-01  1.713783678637e-03 -2.046175813845e-03  9.274592967239e-04
3
step 485
H  7.475478504000e-01  3.544420267000e-01 -1.783474308000e-01 -1.889241320461e-03 -2.164605463591e-03  1.047587115706e-03
O -8.985450000000e-04 -1.065770814000e-01  5.028818360000e-02  3.247889736994e-06  2.629717363668e-04 -1.226530610460e-04
H -7.978877992000e-01  3.910859003000e-01 -1.699068430000e-01  1.772770411453e-03 -2.048429582502e-03  9.275266874031e-04
3
step 486
H  7.397559902000e-01  3.453448784000e-01 -1.739470069000e-01 -1.637089630050e-03 -1.972740255210e-03  9.534331400022e-04
O -9.194679000000e-04 -1.054515929000e-01  4.976387410000e-02 -1.356978953359e-05  2.492389256583e-04 -1.159421598096e-04
H -7.900480400000e-01  3.821479881000e-01 -1.658615709000e-01  1.787494312649e-03 -2.022346445923e-03  9.150382296096e-04
3
step 487
H  7.332220637000e-01  3.371790402000e-01 -1.700041614000e-01 -1.316393720190e-03 -1.740662919324e-03  8.392888572820e-04
O -1.017291000000e-03 -1.043960501000e-01  4.927360110000e-02 -3.163896166636e-05  2.310467425666e-04 -1.071215641760e-04
H -7.822458564000e-01  3.733888217000e-01 -1.618995584000e-01  1.753552032372e-03 -1.965708874566e-03  8.890253223183e-04
3
step 488
H  7.282365381000e-01  3.301127462000e-01 -1.666025873000e-01 -9.337195036522e-04 -1.473125634715e-03  7.074911649342e-04
O -1.196333000000e-03 -1.034297571000e-01  4.882647850000e-02 -5.032330744036e-05  2.085866080693e-04 -9.629161280057e-05
H -7.747031182000e-01  3.649465316000e-01 -1.580819192000e-01  1.667404126949e-03 -1.876794097919e-03  8.487372105995e-04
3
step 489
H  7.250513037000e-01  3.242880639000e-01 -1.638130724000e-01 -5.001549892484e-04 -1.177282157612e-03  5.615773125387e-04
O -1.457658500000e-03 -1.025707577000e-01  4.843097580000e-02 -6.878684052099e-05  1.822486274862e-04 -8.364893763387e-05
H -7.676547946000e-01  3.569654375000e-01 -1.544724585000e-01  1.526864433238e-03 -1.754634657714e-03  7.937548225230e-04
3
step 490
H  7.238597993000e-01  3.198106266000e-01 -1.616883562000e-01 -3.101432142426e-05 -8.623944164899e-04  4.061432776775e-04
O -1.798270500000e-03 -1.018349422000e-01  4.809448630000e-02 -8.604608118391e-05  1.526208911125e-04 -6.948533487712e-05
H -7.613418863000e-01  3.495921360000e-01 -1.511359572000e-01  1.331633864249e-03 -1.599299686191e-03  7.241136521284e-04
3
step 491
H  7.247799046000e-01  3.167414530000e-01 -1.602590081000e-01  4.551353597984e-04 -5.391848475533e-04  2.465242921535e-04
O -2.210627500000e-03 -1.012352081000e-01  4.782292590000e-02 -1.010635658534e-04  1.204653803246e-04 -5.417498895661e-05
H -7.560019796000e-01  3.429703417000e-01 -1.481359101000e-01  1.083811751855e-03 -1.412160569730e-03  6.404198132776e-04
3
step 492
H  7.278425819000e-01  3.150923467000e-01 -1.595310800000e-01  9.380361045185e-04 -2.189137325519e-04  8.833612095566e-05
O -2.682654000000e-03 -1.007807779000e-01  4.762041370000e-02 -1.128711963175e-04  8.667242641979e-05 -3.815104142943e-05
H -7.518577043000e-01  3.372346506000e-01 -1.455317939000e-01  7.882909162564e-04 -1.196091242194e-03  5.439376022847e-04
3
step 493
H  7.329884382000e-01  3.148257904000e-01 -1.594859994000e-01  1.397625566304e-03  8.765282984167e-05 -6.304066864836e-05
O -3.198336800000e-03 -1.004767581000e-01  4.748907510000e-02 -1.206998969626e-04  5.220060615701e-05 -2.187527134877e-05
H -7.491038310000e-01  3.325036283000e-01 -1.433760400000e-01  4.529286818808e-04 -9.555470077489e-04  4.366240137554e-04
3
step 494
H  7.400728748000e-01  3.158593760000e-01 -1.600827341000e-01  1.815876690482e-03  3.711810591495e-04 -2.029314728084e-04
O -3.738870500000e-03 -1.003239827000e-01  4.742898840000e-02 -1.240858774828e-04  1.801171429942e-05 -5.805869510138e-06
H -7.478942318000e-01  3.288728832000e-01 -1.417109997000e-01  8.839237203738e-05 -6.964697011607e-04  3.210874961930e-04
3
step 495
H  7.488787485000e-01  3.180739086000e-01 -1.612618051000e-01  2.178242013001e-03  6.244400036056e-04 -3.277059666539e-04
O -4.284183200000e-03 -1.003191418000e-01  4.743826930000e-02 -1.229288312199e-04 -1.498933170248e-05  9.631596724258e-06
H -7.483303301000e-01  3.264089856000e-01 -1.405662787000e-01 -2.923614592654e-04 -4.260024647299e-04  2.004633823187e-04
3
step 496
H  7.591341589000e-01  3.213237038000e-01 -1.629504120000e-01  2.474479494512e-03  8.426150304600e-04 -4.349381725845e-04
O -4.814591800000e-03 -1.004551508000e-01  4.751327220000e-02 -1.174893113925e-04 -4.600318688180e-05  2.406691058125e-05
H -7.504526182000e-01  3.251450357000e-01 -1.399567918000e-01 -6.749546268898e-04 -1.520264333742e-04  7.821107251891e-05
3
step 497
H  7.705323371000e-01  3.254474348000e-01 -1.650678468000e-01  2.698815134717e-03  1.023271975400e-03 -5.233915861419e-04
O -5.312304500000e-03 -1.007217049000e-01  4.764887320000e-02 -1.083291477345e-04 -7.437045746364e-05  3.720023999075e-05
H -7.542366995000e-01  3.250786379000e-01 -1.398818720000e-01 -1.044695203987e-03  1.174234885763e-04 -4.214186506558e-05
3
step 498
H  7.827508560000e-01  3.302781164000e-01 -1.675304888000e-01  2.849559449335e-03  1.166055363220e-03 -5.928711295254e-04
O -5.762554700000e-03 -1.011059492000e-01  4.783880270000e-02 -9.621406529518e-05 -9.959076205572e-05  4.880937809558e-05
H -7.595945005000e-01  3.261725811000e-01 -1.403255653000e-01 -1.387739450119e-03  3.747643938428e-04 -1.572650016289e-04
3
step 499
H  7.954681624000e-01  3.356513113000e-01 -1.702559228000e-01  2.928374510188e-03  1.272237338691e-03 -6.439999025404e-04
O -6.154251200000e-03 -1.015932003000e-01  4.807599260000e-02 -8.200275470974e-05 -1.213278877689e-04  5.875035576930e-05
H -7.663804814000e-01  3.283581131000e-01 -1.412580610000e-01 -1.692119387699e-03  6.133964069101e-04 -2.642574890906e-04
3
step 500
H  8.083763734000e-01  3.414111665000e-01 -1.731659806000e-01  2.939396467632e-03  1.344226157535e-03 -6.779746874040e-04
O -6.480141600000e-03 -1.021676611000e-01  4.835291330000e-02 -6.654528108182e-05 -1.394027691168e-04  6.695255061531e-05
H -7.744018397000e-01  3.315402689000e-01 -1.426380205000e-01 -1.948478586800e-03  8.280795927859e-04 -3.608127954067e-04
3
step 501
H  8.211901303000e-01  3.474143186000e-01 -1.761887200000e-01  2.888377431308e-03  1.385114061383e-03 -6.963400302127e-04
O -6.736573300000e-03 -1.028130812000e-01  4.866187860000e-02 -5.060603472027e-05 -1.537767809051e-04  7.340967746887e-05
H -7.834311597000e-01  3.356044430000e-01 -1.444154490000e-01 -2.150436617864e-03  1.015117904346e-03 -4.452988804165e-04
3
step 502
H  8.336518856000e-01  3.535319742000e-01 -1.792594886000e-01  2.781948478574e-03  1.398308363747e-03 -7.008031782657e-04
O -6.922983100000e-03 -1.035133255000e-01  4.899530420000e-02 -3.481733976677e-05 -1.645283528478e-04  7.816821455189e-05
H -7.932198053000e-01  3.404233272000e-01 -1.465347264000e-01 -2.294589065409e-03  1.172355813487e-03 -5.167566096957e-04
3
step 503
H  8.455343078000e-01  3.596505865000e-01 -1.823212839000e-01  2.627047064572e-03  1.387258906992e-03 -6.930968029252e-04
O -7.041251700000e-03 -1.042528301000e-01  4.934591030000e-02 -1.966165460930e-05 -1.718262610453e-04  8.131465944437e-05
H -8.035105695000e-01  3.458634533000e-01 -1.489374647000e-01 -2.380217299699e-03  1.299027115200e-03 -5.748339637371e-04
3
step 504
H  8.566405573000e-01  3.656715510000e-01 -1.853246159000e-01  2.430509908109e-03  1.355275239465e-03 -6.748863128628e-04
O -7.095037600000e-03 -1.050169368000e-01  4.970686960000e-02 -5.475667524008e-06 -1.759027183370e-04  8.296308674368e-05
H -8.140485276000e-01  3.517908083000e-01 -1.515649634000e-01 -2.408815228971e-03  1.395511844830e-03 -6.196803237653e-04
3
step 505
H  8.668031290000e-01  3.715102817000e-01 -1.882270555000e-01  2.198810674021e-03  1.305417829575e-03 -6.477143069165e-04
O -7.089167900000e-03 -1.057921135000e-01  5.007190080000e-02  7.531693470897e-06 -1.770289330100e-04  8.324402675129e-05
H -8.245895456000e-01  3.580752496000e-01 -1.543601416000e-01 -2.383540917672e-03  1.463056572240e-03 -6.518247543792e-04
3
step 506
H  8.758818329000e-01  3.770949557000e-01 -1.909926116000e-01  1.937913553976e-03  1.240445896643e-03 -6.129736141624e-04
O -7.029129500000e-03 -1.065660754000e-01  5.043531860000e-02  1.925463648240e-05 -1.754946945837e-04  8.229528227562e-05
H -8.349063342000e-01  3.645936726000e-01 -1.572689286000e-01 -2.308679783110e-03  1.503501790222e-03 -6.720574539166e-04
3
step 507
H  8.837613551000e-01  3.823651323000e-01 -1.935910436000e-01  1.653213591689e-03  1.162805741063e-03 -5.719007984823e-04
O -6.920675100000e-03 -1.073278263000e-01  5.079204750000e-02  2.966471142660e-05 -1.715926129028e-04  8.025495781303e-05
H -8.447922600000e-01  3.712320405000e-01 -1.602411585000e-01 -2.189175447900e-03  1.519044394693e-03 -6.813263760654e-04
3
step 508
H  8.903487166000e-01  3.872703955000e-01 -1.959971811000e-01  1.349538520480e-03  1.074646537210e-03 -5.255835133492e-04
O -6.769540600000e-03 -1.080676420000e-01  5.113761090000e-02  3.878696297086e-05 -1.656071293828e-04  7.725660968608e-05
H -8.540632942000e-01  3.778864732000e-01 -1.632310557000e-01 -2.030254074524e-03  1.512047589311e-03 -6.806541696965e-04
3
step 509
H  8.955708497000e-01  3.917691117000e-01 -1.981903014000e-01  1.031189696833e-03  9.778520929457e-04 -4.749761256044e-04
O -6.581259500000e-03 -1.087770154000e-01  5.146810200000e-02  4.667982257770e-05 -1.578075370498e-04  7.342621088042e-05
H -8.625585363000e-01  3.844636137000e-01 -1.661974032000e-01 -1.837146391921e-03  1.484900362913e-03 -6.710762962750e-04
3
step 510
H  8.993724153000e-01  3.958273495000e-01 -2.001535856000e-01  7.020082523294e-04  8.740823545620e-04 -4.209203719368e-04
O -6.361056400000e-03 -1.094485787000e-01  5.178014640000e-02  5.341906419330e-05 -1.484445294130e-04  6.888066546032e-05
H -8.701397306000e-01  3.908804874000e-01 -1.691034867000e-01 -1.614899099408e-03  1.439921365339e-03 -6.535984004443e-04
3
step 511
H  9.017139590000e-01  3.994180010000e-01 -2.018736767000e-01  3.654571801849e-04  7.648203055380e-04 -3.641688128325e-04
O -6.113801900000e-03 -1.100760185000e-01  5.207086050000e-02  5.908553560591e-05 -1.377493639670e-04  6.372758915931e-05
H -8.766901389000e-01  3.970640273000e-01 -1.719168893000e-01 -1.368261966835e-03  1.379299415497e-03 -6.291698529112e-04
3
step 512
H  9.025704453000e-01  4.025201123000e-01 -2.033403414000e-01  2.470701461413e-05  6.514189567170e-04 -3.054083505183e-04
O -5.844012800000e-03 -1.106539910000e-01  5.233781150000e-02  6.375649634611e-05 -1.259350415166e-04  5.806599046351e-05
H -8.821130696000e-01  4.029504125000e-01 -1.746092043000e-01 -1.101634975206e-03  1.305064361052e-03 -5.986709927036e-04
3
step 513
H  9.019301642000e-01  4.051184152000e-01 -2.045462334000e-01 -3.172775390286e-04  5.351478793803e-04 -2.452834177914e-04
O -5.555883800000e-03 -1.111780465000e-01  5.257898230000e-02  6.749962506790e-05 -1.131988156723e-04  5.198758249690e-05
H -8.863302878000e-01  4.084843389000e-01 -1.771557185000e-01 -8.190599242723e-04  1.219080313301e-03 -5.629102291388e-04
3
step 514
H  8.997940241000e-01  4.072030656000e-01 -2.054867589000e-01 -6.576504301575e-04  4.172395600521e-04 -1.844191668493e-04
O -5.253339400000e-03 -1.116445673000e-01  5.279274270000e-02  7.036901989837e-05 -9.972569882903e-05  4.557852915435e-05
H -8.892804706000e-01  4.136182980000e-01 -1.795350994000e-01 -5.242434979412e-04  1.123054423553e-03 -5.226279683370e-04
3
step 515
H  8.961752198000e-01  4.087695806000e-01 -2.061600422000e-01 -9.935996897783e-04  2.989348273840e-04 -1.234440273169e-04
O -4.940101000000e-03 -1.120507227000e-01  5.297782930000e-02  7.240264323259e-05 -8.569260808962e-05  3.892146092540e-05
H -8.909178195000e-01  4.183119243000e-01 -1.817291130000e-01 -2.206016855382e-04  1.018557087072e-03 -4.785054398781e-04
3
step 516
H  8.910992666000e-01  4.098189741000e-01 -2.065669886000e-01 -1.322265622784e-03  1.815269671556e-04 -6.301166089893e-05
O -4.619760900000e-03 -1.123944432000e-01  5.313333520000e-02  7.362066245009e-05 -7.127273516828e-05  3.209757299652e-05
H -8.912109041000e-01  4.225314517000e-01 -1.837223881000e-01  8.868524243043e-05  9.070472482963e-04 -4.311757312656e-04
3
step 517
H  8.846043840000e-01  4.103580804000e-01 -2.067114424000e-01 -1.640660092726e-03  6.640731828737e-05 -3.823601685679e-06
O -4.295863900000e-03 -1.126744136000e-01  5.325870770000e-02  7.402447171470e-05 -5.664046481778e-05  2.518899304407e-05
H -8.901417557000e-01  4.262492817000e-01 -1.855022305000e-01  4.006071354410e-04  7.899049465632e-04 -3.812379169770e-04
3
step 518
H  8.767422356000e-01  4.104000889000e-01 -2.066004481000e-01 -1.945593851597e-03 -4.489036075251e-05  5.334878919489e-05
O -3.971990100000e-03 -1.128900906000e-01  5.335375820000e-02  7.359659598290e-05 -4.197651266593e-05  1.828118559550e-05
H -8.877052852000e-01  4.294437243000e-01 -1.870585116000e-01  7.122531714282e-04  6.684688625401e-04 -3.292735004546e-04
3
step 519
H  8.675789493000e-01  4.099652554000e-01 -2.062445997000e-01 -2.233609322851e-03 -1.506474865131e-04  1.076433516967e-04
O -3.651837300000e-03 -1.130417402000e-01  5.341868200000e-02  7.230072300106e-05 -2.747290763708e-05  1.146528782515e-05
H -8.839089956000e-01  4.320988956000e-01 -1.883836256000e-01  1.020743762167e-03  5.440725024898e-04 -2.758622070105e-04
3
step 520
H  8.571964452000e-01  4.090818082000e-01 -2.056584864000e-01 -2.500920204399e-03 -2.489190541975e-04  1.580865572252e-04
O -3.339303500000e-03 -1.131304995000e-01  5.345408820000e-02  7.008225182890e-05 -1.333807493627e-05  4.840504773368e-06
H -8.787729964000e-01  4.342047749000e-01 -1.894725169000e-01  1.323161581018e-03  4.180829560246e-04 -2.215990063380e-04
3
step 521
H  8.456939842000e-01  4.077870233000e-01 -2.048612214000e-01 -2.743369575126e-03 -3.374985595872e-04  2.035761570122e-04
O -3.038564000000e-03 -1.131584586000e-01  5.346104010000e-02  6.687000240429e-05  1.982135264620e-07 -1.483641707248e-06
H -8.723303195000e-01  4.357574414000e-01 -1.903227864000e-01  1.616482343836e-03  2.919432512597e-04 -1.671127851653e-04
3
step 522
H  8.331898626000e-01  4.061284376000e-01 -2.038770392000e-01 -2.956411990176e-03 -4.138933840516e-04  2.428692745849e-04
O -2.754139800000e-03 -1.131287650000e-01  5.344110520000e-02  6.257908157838e-05  1.288049665864e-05 -7.385347409435e-06
H -8.646275392000e-01  4.367595017000e-01 -1.909348816000e-01  1.897510087772e-03  1.672151533576e-04 -1.130854038741e-04
3
step 523
H  8.198231175000e-01  4.041651395000e-01 -2.027359295000e-01 -3.135131582221e-03 -4.753179745722e-04  2.745794345975e-04
O -2.490949200000e-03 -1.130457444000e-01  5.339641270000e-02  5.711565526979e-05  2.442438789686e-05 -1.272916360464e-05
H -8.557256545000e-01  4.372207019000e-01 -1.913123702000e-01  2.162819366043e-03  4.562190821867e-05 -6.027088567982e-05
3
step 524
H  8.057550627000e-01  4.019690416000e-01 -2.014742591000e-01 -3.274309497855e-03 -5.187145276492e-04  2.971875013033e-04
O -2.254334100000e-03 -1.129150329000e-01  5.332971530000e-02  5.038426211082e-05  3.451515818784e-05 -1.736553536911e-05
H -8.457012151000e-01  4.371587284000e-01 -1.914622980000e-01  2.408705981380e-03 -7.090953035345e-05 -9.514523531911e-06
3
step 525
H  7.911704044000e-01  3.996259906000e-01 -2.001353115000e-01 -3.368557851593e-03 -5.408135097236e-04  3.090723867269e-04
O -2.050048300000e-03 -1.127437104000e-01  5.324445090000e-02  4.229840452151e-05  4.280918957561e-05 -2.113170664761e-05
H -8.346476344000e-01  4.366001893000e-01 -1.913956296000e-01  2.631152826730e-03 -1.802101862876e-04  3.822950314060e-05
3
step 526
H  7.762776044000e-01  3.972365097000e-01 -1.987696393000e-01 -3.412537133148e-03 -5.382474529424e-04  3.085681565283e-04
O -1.884190700000e-03 -1.125404198000e-01  5.314479670000e-02  3.279502515807e-05  4.893947872031e-05 -2.385451772312e-05
H -8.226766148000e-01  4.355817513000e-01 -1.911277606000e-01  2.825819399318e-03 -2.798398980806e-04  8.188448390782e-05
3
step 527
H  7.613080937000e-01  3.949159136000e-01 -1.974351040000e-01 -3.401271932971e-03 -5.077323655822e-04  2.940542758264e-04
O -1.763066800000e-03 -1.123154525000e-01  5.303570570000e-02  2.185324813150e-05  5.252634681893e-05 -2.535573046548e-05
H -8.099195527000e-01  4.341513761000e-01 -1.906790777000e-01  2.988062374844e-03 -3.670719784245e-04  1.202435802889e-04
3
step 528
H  7.465138729000e-01  3.927934630000e-01 -1.961964394000e-01 -3.330571060945e-03 -4.463274990513e-04  2.640840779670e-04
O -1.692958100000e-03 -1.120807740000e-01  5.292291470000e-02  9.516955319289e-06  5.319448040107e-05 -2.546032017789e-05
H -7.965287830000e-01  4.323695907000e-01 -1.900755373000e-01  3.112999505898e-03 -4.389005964181e-04  1.519722803948e-04
3
step 529
H  7.321630488000e-01  3.910102065000e-01 -1.951241663000e-01 -3.197540767797e-03 -3.517739697110e-04  2.175516619295e-04
O -1.679786200000e-03 -1.118499601000e-01  5.281290840000e-02 -4.080699206512e-06  5.059698865406e-05 -2.400813172054e-05
H -7.826784254000e-01  4.303106601000e-01 -1.893492040000e-01  3.195632637491e-03 -4.920828218907e-04  1.756262807929e-04
3
step 530
H  7.185329449000e-01  3.897151717000e-01 -1.942926959000e-01 -3.001157472167e-03 -2.228983395888e-04  1.538903755444e-04
O -1.728667300000e-03 -1.116380117000e-01  5.271282510000e-02 -1.869367981503e-05  4.444624415501e-05 -2.086873535464e-05
H -7.685645526000e-01  4.280634896000e-01 -1.885386729000e-01  3.231042227189e-03 -5.232266954162e-04  1.896897871586e-04
3
step 531
H  7.059006249000e-01  3.890596755000e-01 -1.937775078000e-01 -2.742834463056e-03 -6.004165315120e-05  7.328347593179e-05
O -1.843370200000e-03 -1.114610214000e-01  5.263029100000e-02 -3.394522859072e-05  3.455006256457e-05 -1.595865495029e-05
H -7.544043340000e-01  4.257320262000e-01 -1.876892732000e-01  3.214664993979e-03 -5.289388451207e-04  1.926402720419e-04
3
step 532
H  6.945310449000e-01  3.891897613000e-01 -1.936514094000e-01 -2.426881864182e-03  1.345540913437e-04 -2.314678988859e-05
O -2.025714000000e-03 -1.113356722000e-01  5.257317470000e-02 -4.932198699021e-05  2.084966502204e-05 -9.259231567497e-06
H -7.404337746000e-01  4.234348700000e-01 -1.868529232000e-01  3.142657840739e-03 -5.060423053516e-04  1.830446858834e-04
3
step 533
H  6.846635519000e-01  3.902371268000e-01 -1.939800599000e-01 -2.060738801110e-03  3.564917332162e-04 -1.332160049099e-04
O -2.274975300000e-03 -1.112785709000e-01  5.254926560000e-02 -6.418710555320e-05  3.454079708897e-06 -8.324986395520e-07
H -7.269036737000e-01  4.213037689000e-01 -1.860874921000e-01  3.012339644175e-03 -4.518690351019e-04  1.596896216337e-04
3
step 534
H  6.764980038000e-01  3.923093367000e-01 -1.948171514000e-01 -1.654866635728e-03  5.991896856377e-04 -2.536654871959e-04
O -2.587400300000e-03 -1.113054464000e-01  5.256588970000e-02 -7.781766691610e-05 -1.733538029142e-05  9.167970975383e-06
H -7.140734981000e-01  4.194806702000e-01 -1.854555168000e-01  2.822684084881e-03 -3.646188534835e-04  1.217421006953e-04
3
step 535
H  6.701822028000e-01  3.954804949000e-01 -1.961998270000e-01 -1.222242875641e-03  8.541443629712e-04 -3.802936932490e-04
O -2.955939400000e-03 -1.114302687000e-01  5.262949240000e-02 -8.946715806411e-05 -4.101665144796e-05  2.049412582268e-05
H -7.022030284000e-01  4.181130749000e-01 -1.850221556000e-01  2.574811412337e-03 -2.437568541228e-04  6.892870240309e-05
3
step 536
H  6.658024436000e-01  3.997837533000e-01 -1.981450121000e-01 -7.774793632723e-04  1.111493349817e-03 -5.082350324890e-04
O -3.370306400000e-03 -1.116643734000e-01  5.274522900000e-02 -9.844677522238e-05 -6.689834278351e-05  3.281005470111e-05
H -6.915419284000e-01  4.173476113000e-01 -1.848523379000e-01  2.272399366695e-03 -9.039700133525e-05  1.709784220328e-06
3
step 537
H  6.633786635000e-01  4.052069121000e-01 -2.006472723000e-01 -3.356823252457e-04  1.360814160887e-03 -6.323532911406e-04
O -3.817424000000e-03 -1.120156804000e-01  5.291660550000e-02 -1.042120448538e-04 -9.413143596005e-05  4.570829152294e-05
H -6.823177955000e-01  4.173220320000e-01 -1.850071937000e-01  1.921916292116e-03  9.240181804530e-05 -7.858456671981e-05
3
step 538
H  6.628649664000e-01  4.116919183000e-01 -2.036785872000e-01  8.875578254851e-05  1.592025177090e-03 -7.476841626836e-04
O -4.282241500000e-03 -1.124880955000e-01  5.314521150000e-02 -1.064366137785e-04 -1.217581541488e-04  5.873390006524e-05
H -6.747236905000e-01  4.181561979000e-01 -1.855400130000e-01  1.532580948275e-03  2.995114489675e-04 -1.696950416729e-04
3
step 539
H  6.641553445000e-01  4.191383504000e-01 -2.071900807000e-01  4.832268602064e-04  1.796229635739e-03 -8.498487385565e-04
O -4.748825800000e-03 -1.130811574000e-01  5.343057200000e-02 -1.050566430068e-04 -1.487724001744e-04  7.141353200065e-05
H -6.689065397000e-01  4.199429864000e-01 -1.864921551000e-01  1.115993303795e-03  5.238519984575e-04 -2.684820340058e-04
3
step 540
H  6.670935712000e-01  4.274103018000e-01 -2.111154139000e-01  8.376684778161e-04  1.966351830921e-03 -9.353644843957e-04
O -5.201567500000e-03 -1.137899678000e-01  5.377013450000e-02 -1.002745651250e-04 -1.741842537328e-04  8.328575110315e-05
H -6.649578953000e-01  4.227403036000e-01 -1.878894362000e-01  6.854321427944e-04  7.567824940335e-04 -3.710977612898e-04
3
step 541
H  6.714855846000e-01  4.363454333000e-01 -2.153752356000e-01  1.144942096103e-03  2.097489343277e-03 -1.001816589624e-03
O -5.626304900000e-03 -1.146054029000e-01  5.415938610000e-02 -9.252260291312e-05 -1.970821419554e-04  9.392955646841e-05
H -6.629084840000e-01  4.265654122000e-01 -1.897395444000e-01  2.548991164772e-04  9.887381628430e-04 -4.732703273213e-04
3
step 542
H  6.771126904000e-01  4.457649383000e-01 -2.198820755000e-01  1.400839100188e-03  2.186969487634e-03 -1.047884351431e-03
O -6.011211100000e-03 -1.155145874000e-01  5.459209000000e-02 -8.239596832934e-05 -2.166860873247e-04  1.029882661398e-04
H -6.627273330000e-01  4.313925190000e-01 -1.920309136000e-01 -1.619462060449e-04  1.210019930633e-03 -5.706577711657e-04
3
step 543
H  6.837439984000e-01  4.554830894000e-01 -2.245450254000e-01  1.603790653526e-03  2.234154555179e-03 -1.073244776344e-03
O -6.347332700000e-03 -1.165015720000e-01  5.506061220000e-02 -7.057110965734e-05 -2.323863511530e-04  1.101863613501e-04
H -6.643256372000e-01  4.371540123000e-01 -1.947332365000e-01 -5.527914475827e-04  1.411601546608e-03 -6.592116056571e-04
3
step 544
H  6.911470856000e-01  4.653154999000e-01 -2.292737884000e-01  1.754402632286e-03  2.240091444091e-03 -1.078400339284e-03
O -6.628762300000e-03 -1.175481457000e-01  5.555630490000e-02 -5.772718122995e-05 -2.437649265598e-04  1.153383131780e-04
H -6.675646811000e-01  4.437451125000e-01 -1.977995195000e-01 -9.074546458186e-04  1.585817747262e-03 -7.354881364644e-04
3
step 545
H  6.990963636000e-01  4.750856033000e-01 -2.339818534000e-01  1.854922067430e-03  2.207091545417e-03 -1.064473099861e-03
O -6.852489700000e-03 -1.186347015000e-01  5.606991070000e-02 -4.448326948915e-05 -2.505986193457e-04  1.183491082167e-04
H -6.722665596000e-01  4.510311308000e-01 -2.011693204000e-01 -1.218349858311e-03  1.726829838526e-03 -7.968603658489e-04
3
step 546
H  7.073790728000e-01  4.846292394000e-01 -2.385887423000e-01  1.908720559020e-03  2.138314953143e-03 -1.033001392143e-03
O -7.018024900000e-03 -1.197410754000e-01  5.659195020000e-02 -3.135803994287e-05 -2.528455817410e-04  1.192073600331e-04
H -6.782261745000e-01  4.588561947000e-01 -2.047726573000e-01 -1.480614118249e-03  1.830825911406e-03 -8.416104920056e-04
3
step 547
H  7.157991288000e-01  4.937974951000e-01 -2.430214059000e-01  1.919846146260e-03  2.037405961203e-03 -9.857617556548e-04
O -7.126896500000e-03 -1.208472938000e-01  5.711306620000e-02 -1.875193300741e-05 -2.506193901010e-04  1.179728988246e-04
H -6.852230659000e-01  4.670522582000e-01 -2.085340561000e-01 -1.691943809907e-03  1.895973554689e-03 -8.689105827528e-04
3
step 548
H  7.241791954000e-01  5.024581003000e-01 -2.472149119000e-01  1.892665533067e-03  1.908201939222e-03 -9.246265249771e-04
O -7.182118600000e-03 -1.219341868000e-01  5.762430330000e-02 -6.947543402851e-06 -2.441560283641e-04  1.147613259123e-04
H -6.930319772000e-01  4.754474138000e-01 -2.123762897000e-01 -1.852229553134e-03  1.922186147378e-03 -8.787186486190e-04
3
step 549
H  7.323614002000e-01  5.104957220000e-01 -2.511125953000e-01  1.831598497569e-03  1.754519166097e-03 -8.514588926308e-04
O -7.187692800000e-03 -1.229838459000e-01  5.811731560000e-02  3.877832372623e-06 -2.337789151093e-04  1.097276905966e-04
H -7.014314916000e-01  4.838728575000e-01 -2.162235165000e-01 -1.963088591669e-03  1.910781092001e-03 -8.716255682268e-04
3
step 550
H  7.402070835000e-01  5.178114853000e-01 -2.546658286000e-01  1.740935663477e-03  1.580008769452e-03 -7.680422135467e-04
O -7.148184600000e-03 -1.239799311000e-01  5.858450460000e-02  1.363339082979e-05 -2.198660698563e-04  1.030513509098e-04
H -7.102105043000e-01  4.921682102000e-01 -2.200036802000e-01 -2.027380337216e-03  1.864103568651e-03 -8.486859922206e-04
3
step 551
H  7.475959192000e-01  5.243220075000e-01 -2.578335523000e-01  1.624726052766e-03  1.388071315960e-03 -6.760380750163e-04
O -7.068390200000e-03 -1.249078422000e-01  5.901909380000e-02  2.229424728728e-05 -2.028222252175e-04  9.492311531147e-05
H -7.191726206000e-01  5.001851899000e-01 -2.236501682000e-01 -2.048764739483e-03  1.785170721526e-03 -8.112582109819e-04
3
step 552
H  7.544246795000e-01  5.299581713000e-01 -2.605816790000e-01  1.486719399295e-03  1.181817285657e-03 -5.769668743901e-04
O -6.953092900000e-03 -1.257547808000e-01  5.941515440000e-02  2.988201356978e-05 -1.830570962268e-04  8.553530070084e-05
H -7.281387632000e-01  5.077898197000e-01 -2.271028102000e-01 -2.031334926306e-03  1.677368407728e-03 -7.608674625811e-04
3
step 553
H  7.606058514000e-01  5.346638129000e-01 -2.628824539000e-01  1.330348852032e-03  9.640609696215e-04 -4.722047976281e-04
O -6.806899800000e-03 -1.265097318000e-01  5.976759310000e-02  3.644794005336e-05 -1.609698525546e-04  7.507470217414e-05
H -7.369483552000e-01  5.148634467000e-01 -2.303083406000e-01 -1.979333361032e-03  1.544212927811e-03 -6.990984176062e-04
3
step 554
H  7.660662497000e-01  5.383944423000e-01 -2.647138322000e-01  1.158742361485e-03  7.373378627347e-04 -3.629922254210e-04
O -6.634145500000e-03 -1.271633901000e-01  6.007211550000e-02  4.205926657325e-05 -1.369392770821e-04  6.371812712947e-05
H -7.454594443000e-01  5.213028642000e-01 -2.332204562000e-01 -1.896948628291e-03  1.389178190609e-03 -6.275171197026e-04
3
step 555
H  7.707457335000e-01  5.411160833000e-01 -2.660589136000e-01  9.747534610156e-04  5.039371911253e-04 -2.504495443800e-04
O -6.438849000000e-03 -1.277080553000e-01  6.032517550000e-02  4.678875933860e-05 -1.113186052102e-04  5.163017374672e-05
H -7.535481070000e-01  5.270198187000e-01 -2.357995955000e-01 -1.788182970151e-03  1.215581602066e-03 -5.476193283752e-04
3
step 556
H  7.745960882000e-01  5.428042783000e-01 -2.669054573000e-01  7.810038871077e-04  2.659430240026e-04 -1.355971635719e-04
O -6.224708100000e-03 -1.281375131000e-01  6.052391900000e-02  5.070720530305e-05 -8.443400727749e-05  3.896265503790e-05
H -7.611074134000e-01  5.319401332000e-01 -2.380125443000e-01 -1.656777344095e-03  1.026518278990e-03 -4.608006930248e-04
3
step 557
H  7.775801150000e-01  5.434432882000e-01 -2.672454925000e-01  5.799334904344e-04  2.528010736326e-05 -1.937778457217e-05
O -5.995122200000e-03 -1.284469174000e-01  6.066612850000e-02  5.387832003854e-05 -5.658579988309e-05  2.585531649876e-05
H -7.680461762000e-01  5.360026390000e-01 -2.398319541000e-01 -1.506180586861e-03  8.248331749202e-04 -3.683440866271e-04
3
step 558
H  7.796709500000e-01  5.430254986000e-01 -2.670750278000e-01  3.738544162633e-04 -2.162383504723e-04  9.732029085872e-05
O -5.753231600000e-03 -1.286326821000e-01  6.075017280000e-02  5.635541088415e-05 -2.805145362369e-05  1.243737197441e-05
H -7.742876458000e-01  5.391580546000e-01 -2.412358368000e-01 -1.339550388072e-03  6.131207327278e-04 -2.714193543258e-04
3
step 559
H  7.808516272000e-01  5.415510372000e-01 -2.663938655000e-01  1.650078080698e-04 -4.568623356585e-04  2.136395879793e-04
O -5.501969200000e-03 -1.286923891000e-01  6.077496500000e-02  5.817926055981e-05  9.101329944959e-07 -1.170462232765e-06
H -7.797682669000e-01  5.413679145000e-01 -2.422070811000e-01 -1.159776017394e-03  3.937434567055e-04 -1.710916555608e-04
3
step 560
H  7.811148945000e-01  5.390276036000e-01 -2.652055179000e-01 -4.437794384109e-05 -6.948570604467e-04  3.287300645411e-04
O -5.244118600000e-03 -1.286247177000e-01  6.073993040000e-02  5.937688384633e-05  3.005365570521e-05 -1.485355843088e-05
H -7.844365733000e-01  5.426036111000e-01 -2.427330197000e-01 -9.695157384013e-04  1.688628127241e-04 -6.833537370900e-05
3
step 561
H  7.804632862000e-01  5.354705063000e-01 -2.635172259000e-01 -2.520266453442e-04 -9.284550405188e-04  4.417256294130e-04
O -4.982376000000e-03 -1.284293966000e-01  6.064498500000e-02  5.996054481429e-05  5.914205637833e-05 -2.850090004089e-05
H -7.882522714000e-01  5.428455932000e-01 -2.428050679000e-01 -7.712412618399e-04 -5.952373272098e-05  3.594919051837e-05
3
step 562
H  7.789094685000e-01  5.309029117000e-01 -2.613400807000e-01 -4.555538877761e-04 -1.155809909311e-03  5.517215754120e-04
O -4.719417900000e-03 -1.281071795000e-01  6.049052570000e-02  5.992722201356e-05  8.794097836186e-05 -4.200245325497e-05
H -7.911855244000e-01  5.420827329000e-01 -2.424184368000e-01 -5.672897776442e-04 -2.895402430796e-04  1.409166984615e-04
3
step 563
H  7.764768412000e-01  5.253562854000e-01 -2.586892400000e-01 -6.524054258942e-04 -1.374951201395e-03  6.577523869573e-04
O -4.457967000000e-03 -1.276598458000e-01  6.027743140000e-02  5.925814679947e-05  1.162131669714e-04 -5.524658897619e-05
H -7.932164909000e-01  5.403118946000e-01 -2.415719390000e-01 -3.599180302114e-04 -5.193883521623e-04  2.457569215338e-04
3
step 564
H  7.732004219000e-01  5.188710368000e-01 -2.555842441000e-01 -8.397959489447e-04 -1.583742230448e-03  7.587710561648e-04
O -4.200863800000e-03 -1.270902254000e-01  6.000707580000e-02  5.791839194013e-05  1.437131031024e-04 -6.811756418162e-05
H -7.943350825000e-01  5.375376875000e-01 -2.402678758000e-01 -1.513571296087e-04 -7.473038622206e-04  3.496752092149e-04
3
step 565
H  7.691279841000e-01  5.114973292000e-01 -2.520494128000e-01 -1.014651019454e-03 -1.779843022778e-03  8.536307575923e-04
O -3.951136800000e-03 -1.264022461000e-01  5.968135060000e-02  5.585681676415e-05  1.701818882486e-04 -8.049312213213e-05
H -7.945409816000e-01  5.337724141000e-01 -2.385120134000e-01  5.612953349075e-05 -9.715120575686e-04  4.518723902371e-04
3
step 566
H  7.643214493000e-01  5.032960487000e-01 -2.481143219000e-01 -1.173554332695e-03 -1.960680093683e-03  9.410698415512e-04
O -3.712073900000e-03 -1.256010037000e-01  5.930269930000e-02  5.300631856718e-05  1.953424997742e-04 -9.224228913647e-05
H -7.938439061000e-01  5.290362137000e-01 -2.363136466000e-01  2.601890265285e-04 -1.190183978120e-03  5.515250668793e-04
3
step 567
H  7.588584859000e-01  4.943398784000e-01 -2.438143317000e-01 -1.312708757811e-03 -2.123430329999e-03  1.019703565116e-03
O -3.487290900000e-03 -1.246928498000e-01  5.887416000000e-02  4.928496165607e-05  2.188960518121e-04 -1.032235689949e-04
H -7.922641286000e-01  5.233573938000e-01 -2.336857471000e-01  4.583208138516e-04 -1.401393817400e-03  6.477665034956e-04
3
step 568
H  7.528342434000e-01  4.847144087000e-01 -2.391911356000e-01 -1.427919356442e-03 -2.265024793201e-03  1.088025513713e-03
O -3.280792800000e-03 -1.236854957000e-01  5.839941410000e-02  4.459851426993e-05  2.405193269083e-04 -1.132838139548e-04
H -7.898332484000e-01  5.167729457000e-01 -2.306451942000e-01  6.478197742665e-04 -1.603078482651e-03  7.396684566749e-04
3
step 569
H  7.463630991000e-01  4.745191786000e-01 -2.342932761000e-01 -1.514610953757e-03 -2.382181525672e-03  1.144423256896e-03
O -3.097019800000e-03 -1.225881217000e-01  5.788283990000e-02  3.884499675386e-05  2.598644469079e-04 -1.222580875803e-04
H -7.865952099000e-01  5.093292306000e-01 -2.272130822000e-01  8.257222080453e-04 -1.793000939752e-03  8.262247195371e-04
3
step 570
H  7.395802387000e-01  4.638684979000e-01 -2.291765566000e-01 -1.567895830825e-03 -2.471477836960e-03  1.187213485844e-03
O -2.940869300000e-03 -1.214114830000e-01  5.732956230000e-02  3.192206377064e-05  2.765614418733e-04 -1.299709903501e-04
H -7.826075473000e-01  5.010828157000e-01 -2.234150958000e-01  9.887582388020e-04 -1.968720026145e-03  9.063375777745e-04
3
step 571
H  7.326428111000e-01  4.528918567000e-01 -2.239042498000e-01 -1.582709388182e-03 -2.529473045041e-03  1.214702113249e-03
O -2.817677300000e-03 -1.201679975000e-01  5.674549430000e-02  2.373803419350e-05  2.902248277948e-04 -1.362399188015e-04
H -7.779428189000e-01  4.921014242000e-01 -2.192819350000e-01  1.133315981197e-03 -2.127570726843e-03  9.788089464267e-04
3
step 572
H  7.257303207000e-01  4.417336736000e-01 -2.185469838000e-01 -1.554033289745e-03 -2.552892313963e-03  1.225274231168e-03
O -2.733143400000e-03 -1.188717938000e-01  5.613735880000e-02  1.422708063516e-05  3.004651621516e-04 -1.408807884584e-04
H -7.726901654000e-01  4.824649441000e-01 -2.148497686000e-01  1.255425574332e-03 -2.266660874151e-03  1.042338902580e-03
3
step 573
H  7.190438309000e-01  4.305520958000e-01 -2.131821629000e-01 -1.477222300525e-03 -2.538877351924e-03  1.217516623735e-03
O -2.693179500000e-03 -1.175386974000e-01  5.551267970000e-02  3.368976292721e-06  3.069064183928e-04 -1.437164856638e-04
H -7.669568846000e-01  4.722664074000e-01 -2.101606722000e-01  1.350773278805e-03 -2.382891223620e-03  1.095534909705e-03
3
step 574
H  7.128034955000e-01  4.195165543000e-01 -2.078927818000e-01 -1.348443621926e-03 -2.485302630483e-03  1.190372555918e-03
O -2.703662300000e-03 -1.161861278000e-01  5.487972960000e-02 -8.787080849712e-06  3.092093576081e-04 -1.445882860099e-04
H -7.608698658000e-01  4.616128229000e-01 -2.052630000000e-01  1.414758596288e-03 -2.473007527213e-03  1.136935509297e-03
3
step 575
H  7.072439175000e-01  4.088037964000e-01 -2.027654924000e-01 -1.165220757336e-03 -2.391142008504e-03  1.143322105174e-03
O -2.770073200000e-03 -1.148328790000e-01  5.424742150000e-02 -2.209578235423e-05  3.071006185558e-04 -1.433699011101e-04
H -7.545766646000e-01  4.506256996000e-01 -2.002116167000e-01  1.442609806848e-03 -2.533694499941e-03  1.165052817734e-03
3
step 576
H  7.026069224000e-01  3.985922324000e-01 -1.978878387000e-01 -9.270436942047e-04 -2.256848529802e-03  1.076570323291e-03
O -2.897017300000e-03 -1.134987625000e-01  5.362513330000e-02 -3.628954475970e-05  3.004056382131e-04 -1.399833994925e-04
H -7.482459264000e-01  4.394410576000e-01 -1.950678966000e-01  1.429574338596e-03 -2.561721247153e-03  1.178437923987e-03
3
step 577
H  6.991315760000e-01  3.890546452000e-01 -1.933446784000e-01 -6.359689841475e-04 -2.084686197569e-03  9.912129087508e-04
O -3.087634500000e-03 -1.122040998000e-01  5.302245970000e-02 -5.095856618261e-05  2.890823082617e-04 -1.344153560454e-04
H -7.420667954000e-01  4.282086788000e-01 -1.898993833000e-01  1.371199607127e-03 -2.554146485448e-03  1.175772840435e-03
3
step 578
H  6.970417072000e-01  3.803496333000e-01 -1.892139674000e-01 -2.970954133550e-04 -1.878934340503e-03  8.893396354079e-04
O -3.342943700000e-03 -1.109690711000e-01  5.244889610000e-02 -6.554466914115e-05  2.732505496449e-04 -1.267308302230e-04
H -7.362468808000e-01  4.170903218000e-01 -1.847789847000e-01  1.263713841652e-03 -2.508586094136e-03  1.155990428384e-03
3
step 579
H  6.965317638000e-01  3.726125322000e-01 -1.855622762000e-01  8.121859012984e-05 -1.645884166248e-03  7.740356780832e-04
O -3.661200500000e-03 -1.098129485000e-01  5.191346800000e-02 -7.935732201156e-05  2.532122559668e-04 -1.170824578226e-04
H -7.310083325000e-01  4.062566313000e-01 -1.797835826000e-01  1.104503300416e-03 -2.423534431149e-03  1.118418540888e-03
3
step 580
H  6.977524320000e-01  3.659468876000e-01 -1.824405631000e-01  4.875146453064e-04 -1.393571749318e-03  6.492532809287e-04
O -4.037381000000e-03 -1.087532701000e-01  5.142433500000e-02 -9.161785916170e-05  2.294564176157e-04 -1.057121788333e-04
H -7.265816319000e-01  3.958825414000e-01 -1.749919668000e-01  8.926589657557e-04 -2.298714208730e-03  1.062936845611e-03
3
step 581
H  7.007978899000e-01  3.604177133000e-01 -1.798808133000e-01  9.078317374192e-04 -1.131242251655e-03  5.195506602567e-04
O -4.462926800000e-03 -1.078050293000e-01  5.098840550000e-02 -1.015321008874e-04  2.026462817439e-04 -9.294403806519e-05
H -7.231968836000e-01  3.861411233000e-01 -1.704820721000e-01  6.295339856449e-04 -2.135409470039e-03  9.901253604114e-04
3
step 582
H  7.056966543000e-01  3.560476525000e-01 -1.778940973000e-01  1.326705837985e-03 -8.686065316230e-04  3.897273598505e-04
O -4.925864600000e-03 -1.069799601000e-01  5.061100350000e-02 -1.083832824298e-04  1.735883104102e-04 -7.916819569057e-05
H -7.210727279000e-01  3.771960748000e-01 -1.663276124000e-01  3.192190424173e-04 -1.936717900803e-03  9.013760870080e-04
3
step 583
H  7.124075810000e-01  3.528167416000e-01 -1.764704007000e-01  1.728430420865e-03 -6.150110588768e-04  2.644148376186e-04
O -5.411363500000e-03 -1.062859988000e-01  5.029562330000e-02 -1.116291243459e-04  1.431861731742e-04 -6.481777498242e-05
H -7.204034728000e-01  3.691933600000e-01 -1.625943417000e-01 -3.118043261471e-05 -1.707649874371e-03  7.989353295685e-04
3
step 584
H  7.208217428000e-01  3.506658352000e-01 -1.755802652000e-01  2.098363314862e-03 -3.786701186338e-04  1.476956806024e-04
O -5.902704800000e-03 -1.057269716000e-01  5.004379840000e-02 -1.109820997752e-04  1.123852410924e-04 -5.034154127467e-05
H -7.213455806000e-01  3.622528320000e-01 -1.593363170000e-01 -4.115794880800e-04 -1.455012311014e-03  6.858497839925e-04
3
step 585
H  7.307698654000e-01  3.495030883000e-01 -1.751779505000e-01  2.424046843489e-03 -1.660949770138e-04  4.281830420725e-05
O -6.382541700000e-03 -1.053025419000e-01  4.985509620000e-02 -1.064535448696e-04  8.211415982624e-05 -3.617581298948e-05
H -7.240051081000e-01  3.564608891000e-01 -1.565926314000e-01 -8.093342283470e-04 -1.187049271630e-03  5.658043075253e-04
3
step 586
H  7.420340072000e-01  3.492123771000e-01 -1.752055722000e-01  2.695974391096e-03  1.820622986349e-05 -4.795537733605e-05
O -6.834254800000e-03 -1.050084099000e-01  4.972723240000e-02 -9.835086132284e-05  5.322951276661e-05 -2.271853476139e-05
H -7.284278742000e-01  3.518652427000e-01 -1.543850965000e-01 -1.210052764334e-03 -9.128603217480e-04  4.428609358625e-04
3
step 587
H  7.543617039000e-01  3.496624068000e-01 -1.755975968000e-01  2.907925212446e-03  1.717519361153e-04 -1.233656250291e-04
O -7.243187000000e-03 -1.048367430000e-01  4.965629170000e-02 -8.722880748723e-05  2.646881257239e-05 -1.030797187152e-05
H -7.345939956000e-01  3.484726629000e-01 -1.527172594000e-01 -1.598702430983e-03 -6.416751915144e-04  3.211345000833e-04
3
step 588
H  7.674805775000e-01  3.507153379000e-01 -1.762851159000e-01  3.056889806101e-03  2.938838404426e-04 -1.830579190120e-04
O -7.597573600000e-03 -1.047767875000e-01  4.963702970000e-02 -7.380774095014e-05  2.416351013512e-06  7.920541757895e-07
H -7.424177436000e-01  3.462500938000e-01 -1.515749239000e-01 -1.960833730536e-03 -3.821084511481e-04  2.044602945653e-04
3
step 589
H  7.811118284000e-01  3.522341152000e-01 -1.771994936000e-01  3.142692690263e-03  3.854229727735e-04 -2.274155903399e-04
O -7.889061200000e-03 -1.048155980000e-01  4.966322280000e-02 -5.887861426938e-05 -1.851533198019e-05  1.039943358890e-05
H -7.517527909000e-01  3.451289216000e-01 -1.509280754000e-01 -2.283712160425e-03 -1.415231505796e-04  9.611147312240e-05
3
step 590
H  7.949815429000e-01  3.540880838000e-01 -1.782751762000e-01  3.167436579368e-03  4.482705474478e-04 -2.573639203971e-04
O -8.112806500000e-03 -1.049388109000e-01  4.972803270000e-02 -4.321416445259e-05 -3.608757841850e-05  1.841338889353e-05
H -7.624019722000e-01  3.450116580000e-01 -1.507338750000e-01 -2.557172785417e-03  7.439991774495e-05 -1.390698976497e-06
3
step 591
H  8.088293217000e-01  3.561568254000e-01 -1.794516248000e-01  3.134888888013e-03  4.850220678149e-04 -2.741796798355e-04
O -8.267218200000e-03 -1.051313920000e-01  4.982435400000e-02 -2.750072234797e-05 -5.022291393249e-05  2.480751325567e-05
H -7.741300091000e-01  3.457799779000e-01 -1.509402451000e-01 -2.774090180517e-03  2.618447903292e-04 -8.635543470720e-05
3
step 592
H  8.224142190000e-01  3.583323979000e-01 -1.806744582000e-01  3.049901658249e-03  4.986375264983e-04 -2.793276091580e-04
O -8.353458800000e-03 -1.053782998000e-01  4.994511740000e-02 -1.229699567670e-05 -6.098119614568e-05  2.961795894295e-05
H -7.866773836000e-01  3.473030002000e-01 -1.514895511000e-01 -2.930451933121e-03  4.188103209993e-04 -1.578976548846e-04
3
step 593
H  8.355182945000e-01  3.605202853000e-01 -1.818959551000e-01  2.917918340988e-03  4.921862048514e-04 -2.743331704152e-04
O -8.374826400000e-03 -1.056650241000e-01  5.008353380000e-02  1.981070214885e-06 -6.852943217019e-05  3.292907972280e-05
H -7.997737054000e-01  3.494448886000e-01 -1.523219703000e-01 -3.025104114407e-03  5.448856565351e-04 -2.158364153296e-04
3
step 594
H  8.479482368000e-01  3.626394038000e-01 -1.830750833000e-01  2.744589084499e-03  4.686667618313e-04 -2.606919676970e-04
O -8.336123000000e-03 -1.059779848000e-01  5.023327210000e-02  1.505498081964e-05 -7.311007395024e-05  3.485875785969e-05
H -8.131493589000e-01  3.520711666000e-01 -1.533782849000e-01 -3.059280614205e-03  6.409260135897e-04 -2.605502155196e-04
3
step 595
H  8.595355487000e-01  3.646214780000e-01 -1.841772093000e-01  2.535494072882e-03  4.308931502586e-04 -2.398116996364e-04
O -8.243083800000e-03 -1.063047932000e-01  5.038857460000e-02  2.676532607548e-05 -7.501161740421e-05  3.554490129573e-05
H -8.265447513000e-01  3.550534815000e-01 -1.546019841000e-01 -3.036034070753e-03  7.086989450470e-04 -2.928198923254e-04
3
step 596
H  8.701357497000e-01  3.664100485000e-01 -1.851736191000e-01  2.295962728161e-03  3.814331364796e-04 -2.129803907587e-04
O -8.101905900000e-03 -1.066343938000e-01  5.054431720000e-02  3.704727507943e-05 -7.454390515549e-05  3.513430405319e-05
H -8.397169798000e-01  3.582728246000e-01 -1.559406830000e-01 -2.959666357061e-03  7.505535483720e-04 -3.136823562284e-04
3
step 597
H  8.796269791000e-01  3.679593098000e-01 -1.860409506000e-01  2.030971360380e-03  3.225859434629e-04 -1.813543513910e-04
O -7.918891800000e-03 -1.069571094000e-01  5.069602660000e-02  4.590517030896e-05 -7.201922075690e-05  3.377415326287e-05
H -8.524440963000e-01  3.616213993000e-01 -1.573469447000e-01 -2.835223834190e-03  7.691432921317e-04 -3.243081334557e-04
3
step 598
H  8.879083029000e-01  3.692329223000e-01 -1.867606084000e-01  1.745101534665e-03  2.563874617732e-04 -1.459600197875e-04
O -7.700200600000e-03 -1.072646171000e-01  5.083986680000e-02  5.338936621849e-05 -6.773909213024e-05  3.160610511058e-05
H -8.645273574000e-01  3.650034168000e-01 -1.587786273000e-01 -2.668088984668e-03  7.672136779892e-04 -3.259073719129e-04
3
step 599
H  8.948979527000e-01  3.702028962000e-01 -1.873182125000e-01  1.442540798025e-03  1.846323687795e-04 -1.077044252139e-04
O -7.451694000000e-03 -1.075498783000e-01  5.097260420000e-02  5.957692121333e-05 -6.198615056381e-05  2.876261430092e-05
H -8.757919161000e-01  3.683351059000e-01 -1.601988835000e-01 -2.463675232319e-03  7.474529234732e-04 -3.196635201261e-04
3
step 600
H  9.005316385000e-01  3.708485968000e-01 -1.877031046000e-01  1.127114831962e-03  1.089074697407e-04 -6.739137853237e-05
O -7.178856900000e-03 -1.078070433000e-01  5.109156170000e-02  6.455642183368e-05 -5.502019505652e-05  2.536517421120e-05
H -8.860864006000e-01  3.715442017000e-01 -1.615759276000e-01 -2.227217909109e-03  7.123966240283e-04 -3.066909629453e-04
3
step 601
H  9.047610697000e-01  3.711559199000e-01 -1.879079386000e-01  8.023405769756e-04  3.063114578413e-05 -2.574085793495e-05
O -6.886775900000e-03 -1.080313471000e-01  5.119456890000e-02  6.841666031604e-05 -4.707735581962e-05  2.152401977452e-05
H -8.952817768000e-01  3.745691214000e-01 -1.628826641000e-01 -1.963647441092e-03  6.643754421601e-04 -2.880122029686e-04
3
step 602
H  9.075527324000e-01  3.711166428000e-01 -1.879283568000e-01  4.714895915903e-04 -4.890593651019e-05  1.659084653214e-05
O -6.580158800000e-03 -1.082190062000e-01  5.127991340000e-02  7.123882727585e-05 -3.837151129563e-05  1.733887712853e-05
H -9.032698180000e-01  3.773579951000e-01 -1.640962547000e-01 -1.677527890926e-03  6.054956759915e-04 -2.645497561078e-04
3
step 603
H  9.088869644000e-01  3.707279556000e-01 -1.877627560000e-01  1.376597352322e-04 -1.284991099002e-04  5.899045820466e-05
O -6.263381700000e-03 -1.083671271000e-01  5.134629730000e-02  7.309125502423e-05 -2.909716790657e-05  1.290039891850e-05
H -9.099614292000e-01  3.798676718000e-01 -1.651976768000e-01 -1.373044798937e-03  5.376428109518e-04 -2.371281674123e-04
3
step 604
H  9.087573604000e-01  3.699921773000e-01 -1.874121451000e-01 -1.961508359550e-04 -2.069891066030e-04  1.008675144236e-04
O -5.940554400000e-03 -1.084736287000e-01  5.139280180000e-02  7.402618585054e-05 -1.943328600515e-05  8.292088700482e-06
H -9.152850104000e-01  3.820627810000e-01 -1.661713076000e-01 -1.054027672580e-03  4.625006998143e-04 -2.064827371628e-04
3
step 605
H  9.071704945000e-01  3.689166425000e-01 -1.868800881000e-01 -5.269695270211e-04 -2.832229165741e-04  1.416349168074e-04
O -5.615595900000e-03 -1.085371832000e-01  5.141885950000e-02  7.407799389216e-05 -9.547581212961e-06  3.592357904341e-06
H -9.191849777000e-01  3.839149067000e-01 -1.670045588000e-01 -7.239959755603e-04  3.815806481534e-04 -1.732725300202e-04
3
step 606
H  9.041459738000e-01  3.675137600000e-01 -1.861727313000e-01 -8.517755323742e-04 -3.560158159706e-04  1.806899980498e-04
O -5.292315300000e-03 -1.085571773000e-01  5.142423760000e-02  7.326237149133e-05  3.989136926490e-07 -1.123261788279e-06
H -9.216205291000e-01  3.854019036000e-01 -1.676875748000e-01 -3.862199545184e-04  2.962558844729e-04 -1.380956742590e-04
3
step 607
H  8.997168069000e-01  3.658012318000e-01 -1.852989123000e-01 -1.167425094887e-03 -4.241129705082e-04  2.173953784512e-04
O -4.974494100000e-03 -1.085336924000e-01  5.140903010000e-02  7.157603664930e-05  1.024705376928e-05 -5.779810074343e-06
H -9.225646978000e-01  3.865073724000e-01 -1.682130016000e-01 -4.379088202763e-05  2.077995500281e-04 -1.015061694404e-04
3
step 608
H  8.939301111000e-01  3.638024471000e-01 -1.842703554000e-01 -1.470587817750e-03 -4.861568348829e-04  2.510627067685e-04
O -4.665970200000e-03 -1.084675077000e-01  5.137365990000e-02  6.899756495357e-05  1.983495145720e-05 -1.030073136173e-05
H -9.220037328000e-01  3.872203087000e-01 -1.685758314000e-01  3.003017295841e-04  1.174255363972e-04 -6.403187341154e-05
3
step 609
H  8.868480384000e-01  3.615469875000e-01 -1.831019216000e-01 -1.757688315290e-03 -5.406551784244e-04  2.809367347508e-04
O -4.370712600000e-03 -1.083601214000e-01  5.131889080000e-02  6.548863289779e-05  2.899340097937e-05 -1.460568067535e-05
H -9.199368279000e-01  3.875349357000e-01 -1.687733295000e-01  6.430923978875e-04  2.632962474219e-05 -2.619268585822e-05
3
step 610
H  8.785489937000e-01  3.590713006000e-01 -1.818119440000e-01 -2.024855675672e-03 -5.859515928167e-04  3.061806898464e-04
O -4.092894600000e-03 -1.082137933000e-01  5.124584900000e-02  6.099580972509e-05  3.754135302288e-05 -1.860841641284e-05
H -9.163761824000e-01  3.874507130000e-01 -1.688050375000e-01  9.815605184160e-04 -6.426828245554e-05  1.148084760754e-05
3
step 611
H  8.691290021000e-01  3.564194628000e-01 -1.804226063000e-01 -2.267897543167e-03 -6.202073953954e-04  3.258673479838e-04
O -3.836952600000e-03 -1.080316059000e-01  5.115605290000e-02  5.545406340722e-05  4.528190594656e-05 -2.221493536473e-05
H -9.113474225000e-01  3.869725390000e-01 -1.686728633000e-01  1.312548305554e-03 -1.530793241725e-04  4.842767889779e-05
3
step 612
H  8.587031551000e-01  3.536440114000e-01 -1.789603554000e-01 -2.482299862171e-03 -6.413933830113e-04  3.389751710520e-04
O -3.607629100000e-03 -1.078175420000e-01  5.105145130000e-02  4.879170649783e-05  5.199891407755e-05 -2.532198713010e-05
H -9.048903805000e-01  3.861111519000e-01 -1.683812582000e-01  1.632682024569e-03 -2.387002996681e-04  8.403609921120e-05
3
step 613
H  8.474069793000e-01  3.508067800000e-01 -1.774563142000e-01 -2.663266393757e-03 -6.472996506003e-04  3.443934447371e-04
O -3.409987900000e-03 -1.075765756000e-01  5.093446620000e-02  4.093755436377e-05  5.745463820244e-05 -2.781607306119e-05
H -8.970602057000e-01  3.848837288000e-01 -1.679374831000e-01  1.938297451839e-03 -3.195677067892e-04  1.176231602609e-04
3
step 614
H  8.353975366000e-01  3.479796443000e-01 -1.759466493000e-01 -2.805810620774e-03 -6.355706692596e-04  3.409400918218e-04
O -3.249394200000e-03 -1.073147699000e-01  5.080803930000e-02  3.183094030939e-05  6.138904162881e-05 -2.957335941391e-05
H -8.879287949000e-01  3.833146899000e-01 -1.673519656000e-01  2.225372008790e-03 -3.939116431431e-04  1.484139218035e-04
3
step 615
H  8.228539898000e-01  3.452450504000e-01 -1.744728276000e-01 -2.904913942020e-03 -6.037734951408e-04  3.273961788828e-04
O -3.131442800000e-03 -1.070393745000e-01  5.067567670000e-02  2.143497613143e-05  6.352144946872e-05 -3.046065554799e-05
H -8.775864981000e-01  3.814367006000e-01 -1.666387477000e-01  2.489472734444e-03 -4.597136109304e-04  1.755223173114e-04
3
step 616
H  8.099773172000e-01  3.426961643000e-01 -1.730816822000e-01 -2.955763941695e-03 -5.495089140176e-04  3.025619799604e-04
O -3.061821700000e-03 -1.067589086000e-01  5.054148530000e-02  9.753405502552e-06  6.355541678453e-05 -3.033804683964e-05
H -8.661440039000e-01  3.792918441000e-01 -1.658160110000e-01  2.725726550876e-03 -5.146709451974e-04  1.979346159912e-04
3
step 617
H  7.969887940000e-01  3.404364270000e-01 -1.718251788000e-01 -2.954081446517e-03 -4.705737676648e-04  2.653384551484e-04
O -3.046093000000e-03 -1.064832160000e-01  5.041019550000e-02 -3.149054949983e-06  6.118761924006e-05 -2.906336514781e-05
H -8.537343054000e-01  3.769329360000e-01 -1.649066684000e-01  2.928825666170e-03 -5.561745026444e-04  2.144985254500e-04
3
step 618
H  7.841268445000e-01  3.385782838000e-01 -1.707597678000e-01 -2.896533413052e-03 -3.651769258316e-04  2.148350263140e-04
O -3.089378400000e-03 -1.062234701000e-01  5.028715860000e-02 -1.712436331299e-05  5.612158447148e-05 -2.649897679214e-05
H -8.405145386000e-01  3.744248917000e-01 -1.639389848000e-01  3.093085923601e-03 -5.813094798399e-04  2.239225517517e-04
3
step 619
H  7.716419106000e-01  3.372408495000e-01 -1.699452080000e-01 -2.781213507407e-03 -2.322050732886e-04  1.505014878498e-04
O -3.195944300000e-03 -1.059921092000e-01  5.017830920000e-02 -3.191890976069e-05  4.808659329183e-05 -2.252100688927e-05
H -8.266674372000e-01  3.718460334000e-01 -1.629471748000e-01  3.212575238410e-03 -5.868900387642e-04  2.247904987204e-04
3
step 620
H  7.597890985000e-01  3.365463118000e-01 -1.694427646000e-01 -2.608147761593e-03 -7.152046207985e-05  7.227521665977e-05
O -3.368693200000e-03 -1.058026757000e-01  5.009008260000e-02 -4.715550212980e-05  3.686167759275e-05 -1.703088120083e-05
H -8.124020475000e-01  3.692891549000e-01 -1.619718960000e-01  3.281333409438e-03 -5.695427509425e-04  2.155980910245e-04
3
step 621
H  7.488186223000e-01  3.366149908000e-01 -1.693127445000e-01 -2.379753596243e-03  1.157453175918e-04 -1.927409992349e-05
O -3.608591000000e-03 -1.056695413000e-01  5.002927600000e-02 -6.232528891145e-05  2.230347619465e-05 -9.968554691112e-06
H -7.979532595000e-01  3.668620986000e-01 -1.610605265000e-01  3.293701699453e-03 -5.258547627756e-04  1.948185135886e-04
3
step 622
H  7.389644340000e-01  3.375591719000e-01 -1.696114277000e-01 -2.101158892146e-03  3.269534473071e-04 -1.228280126064e-04
O -3.914087200000e-03 -1.056075032000e-01  5.000285010000e-02 -7.679619737053e-05  4.375580852283e-06 -1.326160619370e-06
H -7.835796378000e-01  3.646875234000e-01 -1.602670849000e-01  3.244774393382e-03 -4.526020041580e-04  1.610032942021e-04
3
step 623
H  7.304318745000e-01  3.394760836000e-01 -1.703875836000e-01 -1.780282298656e-03  5.578372464063e-04 -2.362613586298e-04
O -4.280616500000e-03 -1.056312516000e-01  5.001767110000e-02 -8.984386569833e-05 -1.682386844372e-05  8.839537977440e-06
H -7.695590011000e-01  3.629014847000e-01 -1.596516245000e-01  3.130968915325e-03 -3.470665230181e-04  1.129229860750e-04
3
step 624
H  7.233856018000e-01  3.424406745000e-01 -1.716788954000e-01 -1.427597048622e-03  8.025552782033e-04 -3.566704193072e-04
O -4.700289800000e-03 -1.057547249000e-01  5.008020280000e-02 -1.007078803811e-04 -4.104042079827e-05  2.039776396231e-05
H -7.561812644000e-01  3.616504258000e-01 -1.592789224000e-01  2.950682114021e-03 -2.074371177171e-04  4.974578079320e-05
3
step 625
H  7.179393082000e-01  3.464990563000e-01 -1.735087226000e-01 -1.055552645530e-03  1.053950541038e-03 -4.805030800727e-04
O -5.161887500000e-03 -1.059903867000e-01  5.019616710000e-02 -1.086702470535e-04 -6.785122861137e-05  3.313919163751e-05
H -7.437382752000e-01  3.610862513000e-01 -1.592163109000e-01  2.704959808890e-03 -3.326331335643e-05 -2.875868778709e-05
3
step 626
H  7.141487086000e-01  3.516635481000e-01 -1.758836649000e-01 -6.777029397355e-04  1.304006592965e-03 -6.037862391694e-04
O -5.651237600000e-03 -1.063484751000e-01  5.037019610000e-02 -1.131460340015e-04 -9.666579722684e-05  4.677755574675e-05
H -7.325107966000e-01  3.613593464000e-01 -1.595305829000e-01  2.398065320882e-03  1.740977058715e-04 -1.220168606718e-04
3
step 627
H  7.120088890000e-01  3.579101116000e-01 -1.787923142000e-01 -3.076631065179e-04  1.544444304153e-03 -7.224220834583e-04
O -6.152001800000e-03 -1.068362864000e-01  5.060550650000e-02 -1.137694720630e-04 -1.267415767119e-04  6.095814444691e-05
H -7.227533690000e-01  3.626097394000e-01 -1.602840518000e-01  2.037804815472e-03  4.111302656432e-04 -2.284900152554e-04
3
step 628
H  7.114564211000e-01  3.651786173000e-01 -1.822054108000e-01  4.193453233645e-05  1.767364228140e-03 -8.325059120590e-04
O -6.646807500000e-03 -1.074575608000e-01  5.090362650000e-02 -1.104560109163e-04 -1.572148528707e-04  7.527311225485e-05
H -7.146784455000e-01  3.649570507000e-01 -1.615300454000e-01  1.635467353607e-03  6.720101574805e-04 -3.456015311088e-04
3
step 629
H  7.123758482000e-01  3.733759007000e-01 -1.860773778000e-01  3.603193391232e-04  1.965831314146e-03 -9.306143214377e-04
O -7.118576400000e-03 -1.082120366000e-01  5.126420380000e-02 -1.034241000330e-04 -1.871463295443e-04  8.928316957960e-05
H -7.084417785000e-01  3.684903424000e-01 -1.633083296000e-01  1.205290780695e-03  9.487463406469e-04 -4.697949557597e-04
3
step 630
H  7.146094909000e-01  3.823811453000e-01 -1.903489981000e-01  6.391664188674e-04  2.134305306010e-03 -1.014016418940e-03
O -7.551847500000e-03 -1.090952344000e-01  5.168492250000e-02 -9.316880926960e-05 -2.155776630963e-04  1.025437701469e-04
H -7.041312290000e-01  3.732593071000e-01 -1.656411106000e-01  7.634584908932e-04  1.231651177604e-03 -5.967406289123e-04
3
step 631
H  7.179690434000e-01  3.920527050000e-01 -1.949507972000e-01  8.728455118475e-04  2.268877388923e-03 -1.080789035573e-03
O -7.933874800000e-03 -1.100985061000e-01  5.216154020000e-02 -8.039301659908e-05 -2.415941997846e-04  1.146337530665e-04
H -7.017609326000e-01  3.792682325000e-01 -1.685302666000e-01  3.267591374393e-04  1.510103503291e-03 -7.216758264211e-04
3
step 632
H  7.222475569000e-01  4.022355582000e-01 -1.998067291000e-01  1.058358964733e-03  2.367308686642e-03 -1.129834292473e-03
O -8.255347900000e-03 -1.112093685000e-01  5.268805550000e-02 -6.591221643345e-05 -2.643860721337e-04  1.251827827185e-04
H -7.012718366000e-01  3.864738680000e-01 -1.719563263000e-01 -8.885998829449e-05  1.773480717348e-03 -8.398232699845e-04
3
step 633
H  7.272304940000e-01  4.127684671000e-01 -2.048377117000e-01  1.195038072563e-03  2.428896558886e-03 -1.160812370209e-03
O -8.510657100000e-03 -1.124120865000e-01  5.325698540000e-02 -5.055391127765e-05 -2.832980460052e-04  1.338934908172e-04
H -7.025385255000e-01  3.947875456000e-01 -1.758793627000e-01 -4.695851775301e-04  2.012084636872e-03 -9.468089374711e-04
3
step 634
H  7.327050544000e-01  4.234902614000e-01 -2.099647254000e-01  1.284104177693e-03  2.454234028091e-03 -1.174021596983e-03
O -8.697733300000e-03 -1.136884431000e-01  5.385972600000e-02 -3.507214263110e-05 -2.978620114708e-04  1.405555780359e-04
H -7.053810662000e-01  4.040811480000e-01 -1.802416288000e-01 -8.046539061396e-04  2.217896708103e-03 -1.039005095784e-03
3
step 635
H  7.384673880000e-01  4.342448925000e-01 -2.151112989000e-01  1.328183372797e-03  2.444916986721e-03 -1.170253025914e-03
O -8.817565200000e-03 -1.150186069000e-01  5.448695420000e-02 -2.008975432152e-05 -3.078081635492e-04  1.450503210407e-04
H -7.095798628000e-01  4.141958385000e-01 -1.849714522000e-01 -1.086790302856e-03  2.385047318532e-03 -1.113745884296e-03
3
step 636
H  7.443276750000e-01  4.448851555000e-01 -2.202053347000e-01  1.330844634969e-03  2.403248383133e-03 -1.150643974705e-03
O -8.873534000000e-03 -1.163820000000e-01  5.512902730000e-02 -6.071706838239e-06 -3.130558738617e-04  1.473459191836e-04
H -7.148913128000e-01  4.249521367000e-01 -1.899877574000e-01 -1.312171744193e-03  2.509966023769e-03 -1.169399473115e-03
3
step 637
H  7.501132967000e-01  4.552751544000e-01 -2.251803140000e-01  1.296202941559e-03  2.331972301971e-03 -1.116547042807e-03
O -8.870697300000e-03 -1.177580853000e-01  5.577634370000e-02  6.674680403321e-06 -3.136889522231e-04  1.474859069439e-04
H -7.210623694000e-01  4.361599615000e-01 -1.952045923000e-01 -1.480032770222e-03  2.591251931441e-03 -1.205313293012e-03
3
step 638
H  7.556704424000e-01  4.652916972000e-01 -2.299759755000e-01  1.228605016514e-03  2.234055075877e-03 -1.069422765376e-03
O -8.815125400000e-03 -1.191270183000e-01  5.641964180000e-02  1.798107926369e-05 -3.099216793267e-04  1.455734478729e-04
H -7.278427319000e-01  4.476275735000e-01 -2.005351708000e-01 -1.592055217892e-03  2.629348934167e-03 -1.221669668616e-03
3
step 639
H  7.608645305000e-01  4.748248455000e-01 -2.345385813000e-01  1.132398379141e-03  2.112518420076e-03 -1.010757896989e-03
O -8.713349100000e-03 -1.204701371000e-01  5.705022280000e-02  2.779013704317e-05 -3.020619505373e-04  1.417543440796e-04
H -7.349940706000e-01  4.591687763000e-01 -2.058951365000e-01 -1.651688975279e-03  2.626123584173e-03 -1.219296216709e-03
3
step 640
H  7.655797946000e-01  4.837778495000e-01 -2.388208804000e-01  1.011775220612e-03  1.970321728387e-03 -9.420077024071e-04
O -8.571940400000e-03 -1.217702915000e-01  5.766010070000e-02  3.612545396402e-05 -2.904765634987e-04  1.362010741979e-04
H -7.422962740000e-01  4.706081640000e-01 -2.112049456000e-01 -1.663512645484e-03  2.584430434160e-03 -1.199470133048e-03
3
step 641
H  7.697183377000e-01  4.920666681000e-01 -2.427818694000e-01  8.706782224860e-04  1.810286911792e-03 -8.645589678050e-04
O -8.397223700000e-03 -1.230120293000e-01  5.824208640000e-02  4.306396958478e-05 -2.755617487094e-04  1.290992859956e-04
H -7.495510789000e-01  4.817845198000e-01 -2.163914178000e-01 -1.632696944407e-03  2.507721977690e-03 -1.163742436306e-03
3
step 642
H  7.731988952000e-01  4.996192450000e-01 -2.463864328000e-01  7.127549698394e-04  1.635057707138e-03 -7.797100025234e-04
O -8.195097800000e-03 -1.241816676000e-01  5.878981820000e-02  4.871306194549e-05 -2.577202458134e-04  1.206372601535e-04
H -7.565836214000e-01  4.925526498000e-01 -2.213885822000e-01 -1.564593289867e-03  2.399731186657e-03 -1.113794579467e-03
3
step 643
H  7.759554890000e-01  5.063746739000e-01 -2.496049284000e-01  5.413483475318e-04  1.447085461236e-03 -6.886638373760e-04
O -7.970947200000e-03 -1.252672786000e-01  5.929775470000e-02  5.319278912038e-05 -2.373450993021e-04  1.109984914849e-04
H -7.632424672000e-01  5.027840036000e-01 -2.261379725000e-01 -1.464443646391e-03  2.264232967577e-03 -1.051330057015e-03
3
step 644
H  7.779361074000e-01  5.122823499000e-01 -2.524127682000e-01  3.595124016773e-04  1.248634474393e-03 -5.925310495458e-04
O -7.729620200000e-03 -1.262586188000e-01  5.976113990000e-02  5.662295320604e-05 -2.148094376942e-04  1.003569807761e-04
H -7.693986237000e-01  5.123664205000e-01 -2.305885245000e-01 -1.337195508255e-03  2.104879449127e-03 -9.779991292325e-04
3
step 645
H  7.791014976000e-01  5.173011808000e-01 -2.547900284000e-01  1.700449767908e-04  1.041800878765e-03 -4.923392657544e-04
O -7.475453000000e-03 -1.271470255000e-01  6.017595510000e-02  5.911447478991e-05 -1.904612625623e-04  8.887493098798e-05
H -7.749439509000e-01  5.212033092000e-01 -2.346962131000e-01 -1.187400724330e-03  1.925098413889e-03 -8.953521382798e-04
3
step 646
H  7.794241310000e-01  5.213989046000e-01 -2.567211134000e-01 -2.446929368484e-05  8.285403342155e-04 -3.890468524932e-04
O -7.212323300000e-03 -1.279253006000e-01  6.053886360000e-02  6.076414540909e-05 -1.646220680825e-04  7.670218044799e-05
H -7.797892884000e-01  5.292125044000e-01 -2.384235408000e-01 -1.019176722037e-03  1.728041298317e-03 -8.048155285797e-04
3
step 647
H  7.788873725000e-01  5.245515426000e-01 -2.581944860000e-01 -2.216101413645e-04  6.107014882530e-04 -2.835594540063e-04
O -6.943720300000e-03 -1.285875946000e-01  6.084715780000e-02  6.165188950401e-05 -1.375881620615e-04  6.397694335718e-05
H -7.838625270000e-01  5.363249926000e-01 -2.417389647000e-01 -8.362119880205e-04  1.516568725437e-03 -7.076849765598e-04
3
step 648
H  7.774848728000e-01  5.267430098000e-01 -2.592024756000e-01 -4.190697726000e-04  3.900628459461e-04 -1.767480935650e-04
O -6.672822100000e-03 -1.291293022000e-01  6.109871080000e-02  6.183971765279e-05 -1.096338336601e-04  5.082734565579e-05
H -7.871067831000e-01  5.424836410000e-01 -2.446163257000e-01 -6.418004194223e-04  1.293262156399e-03 -6.051304370688e-04
3
step 649
H  7.752201914000e-01  5.279648909000e-01 -2.597411671000e-01 -6.145999039688e-04  1.683716648102e-04 -6.946824380004e-05
O -6.402575400000e-03 -1.295469745000e-01  6.129193600000e-02  6.137172657131e-05 -8.101572329595e-05  3.737348198630e-05
H -7.894787716000e-01  5.476420258000e-01 -2.470343190000e-01 -4.388928576662e-04  1.060452697097e-03 -4.982089468280e-04
3
step 650
H  7.721066534000e-01  5.282163907000e-01 -2.598103758000e-01 -8.059590948784e-04 -5.261614011077e-05  3.742064129152e-05
O -6.135772600000e-03 -1.298382518000e-01  6.142575740000e-02  6.027467506278e-05 -5.197782792121e-05  2.372981091250e-05
H -7.909474313000e-01  5.517634135000e-01 -2.489760352000e-01 -2.301581025500e-04  8.202608524128e-04 -3.878824514447e-04
3
step 651
H  7.681674327000e-01  5.275044594000e-01 -2.594137078000e-01 -9.908592299602e-04 -2.710958900363e-04  1.430354754933e-04
O -5.875125900000e-03 -1.300018203000e-01  6.149959000000e-02  5.855852797022e-05 -2.275669828173e-05  1.000755013871e-05
H -7.914928311000e-01  5.548199358000e-01 -2.504285872000e-01 -1.804470341503e-05  5.746392196215e-04 -2.750369991620e-04
3
step 652
H  7.634358771000e-01  5.258440942000e-01 -2.585587060000e-01 -1.166915406880e-03 -4.851742693644e-04  2.464500723571e-04
O -5.623340600000e-03 -1.300373903000e-01  6.151333110000e-02  5.621751208411e-05  6.412920433004e-06 -3.682722574788e-06
H -7.911053363000e-01  5.567919463000e-01 -2.513828193000e-01  1.951526238045e-04  3.254222897544e-04 -1.605052668897e-04
3
step 653
H  7.579560302000e-01  5.232588134000e-01 -2.572570811000e-01 -1.331598626187e-03 -6.928312992822e-04  3.466766005393e-04
O -5.383179700000e-03 -1.299457023000e-01  6.146736330000e-02  5.323120404731e-05  3.529253936084e-05 -1.722846849633e-05
H -7.897850964000e-01  5.576676299000e-01 -2.518331311000e-01  4.072277725696e-04  7.437727743877e-05 -4.508960276048e-05
3
step 654
H  7.517833704000e-01  5.197812903000e-01 -2.555250205000e-01 -1.482190871816e-03 -8.918857579321e-04  4.426486481380e-04
O -5.157526900000e-03 -1.297285536000e-01  6.136256880000e-02  4.956554969445e-05  6.363472870708e-05 -3.051276070649e-05
H -7.875417818000e-01  5.574428044000e-01 -2.517773879000e-01  6.160022590690e-04 -1.767475358995e-04  7.041605121478e-05
3
step 655
H  7.449857261000e-01  5.154541307000e-01 -2.533835668000e-01 -1.615748698267e-03 -1.079966113239e-03  5.332070159357e-04
O -4.949443200000e-03 -1.293888497000e-01  6.120035340000e-02  4.517445477006e-05  9.117797533697e-05 -4.341189344998e-05
H -7.843946053000e-01  5.561209537000e-01 -2.512169368000e-01  8.192624162819e-04 -4.261705506049e-04  1.852023897972e-04
3
step 656
H  7.376443332000e-01  5.103307606000e-01 -2.508590512000e-01 -1.729078071667e-03 -1.254491288021e-03  6.170903102216e-04
O -4.762215800000e-03 -1.289306766000e-01  6.098268150000e-02  4.000200644855e-05  1.176422168804e-04 -5.579330688852e-05
H -7.803726088000e-01  5.537134860000e-01 -2.501567253000e-01  1.014698983260e-03 -6.720251961656e-04  2.984212265761e-04
3
step 657
H  7.298549701000e-01  5.044763721000e-01 -2.479835545000e-01 -1.818727202392e-03 -1.412666751758e-03  6.929329315389e-04
O -4.599395100000e-03 -1.283593904000e-01  6.071211920000e-02  3.398569133860e-05  1.427252809006e-04 -6.751385925191e-05
H -7.755152129000e-01  5.502402191000e-01 -2.486055228000e-01  1.199847873735e-03 -9.123078351972e-04  4.091617200475e-04
3
step 658
H  7.217290787000e-01  4.979688458000e-01 -2.447953579000e-01 -1.881005030310e-03 -1.551502512165e-03  7.592738053501e-04
O -4.464815000000e-03 -1.276817212000e-01  6.039188360000e-02  2.706116306629e-05  1.661007090841e-04 -7.841887149299e-05
H -7.698730220000e-01  5.457300945000e-01 -2.465762472000e-01  1.372033152533e-03 -1.144826234233e-03  5.164268739545e-04
3
step 659
H  7.133947371000e-01  4.908995382000e-01 -2.413393279000e-01 -1.912035546890e-03 -1.667861389825e-03  8.145798222731e-04
O -4.362589200000e-03 -1.269058821000e-01  6.002589410000e-02  1.916907139231e-05  1.874176841043e-04 -8.834211357456e-05
H -7.635088732000e-01  5.402221137000e-01 -2.440863925000e-01  1.528313901933e-03 -1.367150150903e-03  6.191109289786e-04
3
step 660
H  7.049973049000e-01  4.833737826000e-01 -2.376671613000e-01 -1.907859614867e-03 -1.758546539681e-03  8.572886320539e-04
O -4.297071000000e-03 -1.260416731000e-01  5.961882250000e-02  1.026445567633e-05  2.063037173867e-04 -9.710725805655e-05
H -7.564991061000e-01  5.337664847000e-01 -2.411585529000e-01  1.665438310257e-03 -1.576567031521e-03  7.159790993682e-04
3
step 661
H  6.966995058000e-01  4.755109106000e-01 -2.338373964000e-01 -1.864595809041e-03 -1.820436689495e-03  8.858747726419e-04
O -4.272767300000e-03 -1.251005667000e-01  5.917613140000e-02  3.291460784528e-07  2.223710851175e-04 -1.045310386770e-04
H -7.489350138000e-01  5.264259461000e-01 -2.378210276000e-01  1.779810403916e-03 -1.770047742080e-03  8.056518120312e-04
3
step 662
H  6.886806650000e-01  4.674435688000e-01 -2.299150793000e-01 -1.778670101332e-03 -1.850675864980e-03  8.989425306417e-04
O -4.294190700000e-03 -1.240957560000e-01  5.870409590000e-02 -1.061289149677e-05  2.352277758576e-04 -1.104287127317e-04
H -7.409244034000e-01  5.182772128000e-01 -2.341084832000e-01  1.867477957042e-03 -1.944230025699e-03  8.865969997801e-04
3
step 663
H  6.811347816000e-01  4.593160809000e-01 -2.259709616000e-01 -1.647118883434e-03 -1.846918890611e-03  8.953459536777e-04
O -4.365638300000e-03 -1.230421437000e-01  5.820979560000e-02 -2.247768267729e-05  2.444937039824e-04 -1.146219323858e-04
H -7.325931530000e-01  5.094124459000e-01 -2.300626256000e-01  1.924151959499e-03 -2.095428965711e-03  9.571346723610e-04
3
step 664
H  6.742671146000e-01  4.512816156000e-01 -2.220801172000e-01 -1.467961254259e-03 -1.807625338791e-03  8.743324538376e-04
O -4.490887700000e-03 -1.219562490000e-01  5.770106630000e-02 -3.510197773677e-05  2.498224174981e-04 -1.169492351852e-04
H -7.240866017000e-01  4.999406063000e-01 -2.257328225000e-01  1.945271498067e-03 -2.219686663599e-03  1.015459355634e-03
3
step 665
H  6.682889976000e-01  4.434979763000e-01 -2.183198837000e-01 -1.240621117894e-03 -1.732381083442e-03  8.357000830643e-04
O -4.672807500000e-03 -1.208560064000e-01  5.718640040000e-02 -4.822491262654e-05  2.509279116971e-04 -1.172789343581e-04
H -7.155705391000e-01  4.899884894000e-01 -2.211765794000e-01  1.926130927040e-03 -2.312875722527e-03  1.059687081753e-03
3
step 666
H  6.634107307000e-01  4.361219557000e-01 -2.147671021000e-01 -9.663573082710e-04 -1.622208028357e-03  7.799493507390e-04
O -4.912892500000e-03 -1.197604378000e-01  5.667478590000e-02 -6.147420903939e-05  2.476149167954e-04 -1.155236226899e-04
H -7.072314825000e-01  4.797011742000e-01 -2.164597498000e-01  1.862086474157e-03 -2.370870820903e-03  1.087933508043e-03
3
step 667
H  6.598326319000e-01  4.293024149000e-01 -2.114947301000e-01 -6.486362925890e-04 -1.479805882631e-03  7.084023721205e-04
O -5.210753800000e-03 -1.186891865000e-01  5.617548030000e-02 -7.436187764239e-05  2.398101134894e-04 -1.116549460882e-04
H -6.992758579000e-01  4.692415559000e-01 -2.116563289000e-01  1.748858317050e-03 -2.389801609129e-03  1.098429038373e-03
3
step 668
H  6.577346669000e-01  4.231725221000e-01 -2.085680394000e-01 -2.933654537675e-04 -1.309661019717e-03  6.232574144331e-04
O -5.563615800000e-03 -1.176619159000e-01  5.569771970000e-02 -8.629512912284e-05  2.275905373293e-04 -1.057169144193e-04
H -6.919276343000e-01  4.587885818000e-01 -2.068476554000e-01  1.582938433299e-03 -2.366393932337e-03  1.089674137567e-03
3
step 669
H  6.572654597000e-01  4.178418791000e-01 -2.060407509000e-01  9.109624534012e-05 -1.117963869785e-03  5.275501482548e-04
O -5.965902200000e-03 -1.166975952000e-01  5.525037640000e-02 -9.660774973076e-05  2.112050351287e-04 -9.783556009218e-05
H -6.854239356000e-01  4.485337986000e-01 -2.021208465000e-01  1.362101239209e-03 -2.298392869969e-03  1.060631840291e-03
3
step 670
H  6.585318287000e-01  4.133894830000e-01 -2.039515720000e-01  4.942105992783e-04 -9.123031590346e-04  4.250055553227e-04
O -6.409007600000e-03 -1.158137102000e-01  5.484158370000e-02 -1.046138382946e-04  1.910848103285e-04 -8.822317540241e-05
H -6.800082064000e-01  4.386758858000e-01 -1.975663153000e-01  1.085988055286e-03 -2.185037843955e-03  1.010943951579e-03
3
step 671
H  6.615901805000e-01  4.098585284000e-01 -2.023216272000e-01  9.038278680666e-04 -7.011500416522e-04  3.197867367813e-04
O -6.881353400000e-03 -1.150254569000e-01  5.447835610000e-02 -1.096807689849e-04  1.678399581568e-04 -7.717571618753e-05
H -6.759207092000e-01  4.294130458000e-01 -1.932743135000e-01  7.566998269758e-04 -2.027528712814e-03  9.411432934147e-04
3
step 672
H  6.664410141000e-01  4.072538837000e-01 -2.011531934000e-01  1.306998006842e-03 -4.931964068108e-04  2.161715083166e-04
O -7.368798200000e-03 -1.143449822000e-01  5.416623710000e-02 -1.113114744051e-04  1.422406375609e-04 -6.506283241312e-05
H -6.733865040000e-01  4.209334584000e-01 -1.893305915000e-01  3.792934195644e-04 -1.829391595671e-03  8.528202593148e-04
3
step 673
H  6.730274130000e-01  4.055426826000e-01 -2.004299611000e-01  1.690913440569e-03 -2.966520418352e-04  1.182078634235e-04
O -7.855413900000e-03 -1.137807425000e-01  5.390900660000e-02 -1.092209600451e-04  1.151827610644e-04 -5.231067196205e-05
H -6.726016016000e-01  4.134044697000e-01 -1.858114838000e-01 -3.794923964527e-05 -1.596637861783e-03  7.486946983280e-04
3
step 674
H  6.812378003000e-01  4.046579514000e-01 -2.001187842000e-01  2.043835401334e-03 -1.186166185414e-04  2.940497642209e-05
O -8.324565200000e-03 -1.133370449000e-01  5.370847870000e-02 -1.033891088067e-04  8.763931330919e-05 -3.937831698047e-05
H -6.737185888000e-01  4.069616556000e-01 -1.827789401000e-01 -4.836104975204e-04 -1.337618003886e-03  6.325486432029e-04
3
step 675
H  6.909125364000e-01  4.045046964000e-01 -2.001726450000e-01  2.355862290879e-03  3.537269692374e-05 -4.749066825333e-05
O -8.760147700000e-03 -1.130138314000e-01  5.356441620000e-02 -9.407627735424e-05  6.060131164637e-05 -2.672978632573e-05
H -6.768335635000e-01  4.016992888000e-01 -1.802761992000e-01 -9.436583009451e-04 -1.062533699146e-03  5.090034361612e-04
3
step 676
H  7.018533977000e-01  4.049674895000e-01 -2.005343639000e-01  2.619441050742e-03  1.615685933469e-04 -1.106094740698e-04
O -9.147804600000e-03 -1.128067370000e-01  5.347457260000e-02 -8.179568252926e-05  3.501329520496e-05 -1.480396733828e-05
H -6.819763209000e-01  3.976636728000e-01 -1.783247706000e-01 -1.402394557330e-03 -7.826377968192e-04  3.831553081882e-04
3
step 677
H  7.138346496000e-01  4.059185452000e-01 -2.011405626000e-01  2.829578965460e-03  2.580171341409e-04 -1.589632211461e-04
O -9.475922500000e-03 -1.127074383000e-01  5.343487010000e-02 -6.724740026388e-05  1.171056466523e-05 -3.985923493169e-06
H -6.891055887000e-01  3.948506093000e-01 -1.769232972000e-01 -1.843710860246e-03 -5.092403663025e-04  2.601234185506e-04
3
step 678
H  7.266143784000e-01  4.072253368000e-01 -2.019254137000e-01  2.983778068297e-03  3.243773022651e-04 -1.923588155080e-04
O -9.736270700000e-03 -1.127042607000e-01  5.343969280000e-02 -5.122946821074e-05 -8.632401802553e-06  5.416294429544e-06
H -6.981102015000e-01  3.932074300000e-01 -1.760484917000e-01 -2.252432221082e-03 -2.527090679627e-04  1.445962670264e-04
3
step 679
H  7.399449904000e-01  4.087570948000e-01 -2.028238494000e-01  3.081760609823e-03  3.616259677361e-04 -2.112550787531e-04
O -9.924219500000e-03 -1.127829785000e-01  5.348226690000e-02 -3.454532697862e-05 -2.553537647253e-05  1.318623906909e-05
H -7.088160939000e-01  3.926392116000e-01 -1.756579692000e-01 -2.615512283395e-03 -2.164414641418e-05  4.045809457076e-05
3
step 680
H  7.535821414000e-01  4.103898407000e-01 -2.037740572000e-01  3.125068827767e-03  3.717153484342e-04 -2.165954438215e-04
O -1.003856880000e-02 -1.129277148000e-01  5.355508250000e-02 -1.792543155778e-05 -3.872348509244e-05  1.920327183058e-05
H -7.209979350000e-01  3.930180272000e-01 -1.756944524000e-01 -2.922881294484e-03  1.776395767615e-04 -4.944449056490e-05
3
step 681
H  7.672917335000e-01  4.120098885000e-01 -2.047192252000e-01  3.116618622605e-03  3.572382965123e-04 -2.096438047768e-04
O -1.008108080000e-02 -1.131218386000e-01  5.365031020000e-02 -1.974209100497e-06 -4.811659752557e-05  2.343686738298e-05
H -7.343935414000e-01  3.941936938000e-01 -1.760906463000e-01 -3.167847638284e-03  3.412793261610e-04 -1.233761475377e-04
3
step 682
H  7.808549388000e-01  4.135159491000e-01 -2.056086009000e-01  3.060268239853e-03  3.211371558510e-04 -1.918414527433e-04
O -1.005584460000e-02 -1.133487718000e-01  5.376017300000e-02  1.285461549297e-05 -5.380182844082e-05  2.593335767528e-05
H -7.487190254000e-01  3.960044824000e-01 -1.767740881000e-01 -3.347063484083e-03  4.677191921100e-04 -1.806448865655e-04
3
step 683
H  7.940714219000e-01  4.148200843000e-01 -2.063979847000e-01  2.960440012845e-03  2.664732267875e-04 -1.646933167100e-04
O -9.968593000000e-03 -1.135926457000e-01  5.387724690000e-02  2.625835783051e-05 -5.599628342711e-05  2.679836090138e-05
H -7.636829076000e-01  3.982865946000e-01 -1.776714273000e-01 -3.460151264892e-03  5.573476160739e-04 -2.214359394528e-04
3
step 684
H  8.067610538000e-01  4.158477937000e-01 -2.070497934000e-01  2.821814035239e-03  1.962594481728e-04 -1.296850039266e-04
O -9.826063900000e-03 -1.138387821000e-01  5.399467910000e-02  3.806870805677e-05 -5.500713105591e-05  2.617827797510e-05
H -7.789979961000e-01  4.008817004000e-01 -1.787118220000e-01 -3.509128738004e-03  6.120281014042e-04 -2.465980091366e-04
3
step 685
H  8.187644536000e-01  4.165375046000e-01 -2.075328277000e-01  2.649098599367e-03  1.133504961245e-04 -8.822788813322e-05
O -9.635462700000e-03 -1.140740002000e-01  5.410632680000e-02  4.822603252862e-05 -5.119463697047e-05  2.424322887925e-05
H -7.943904687000e-01  4.036423087000e-01 -1.798293485000e-01 -3.497765498399e-03  6.346188256264e-04 -2.574253915938e-04
3
step 686
H  8.299426932000e-01  4.168396972000e-01 -2.078218549000e-01  2.446872413463e-03  2.038037576835e-05 -4.162746889865e-05
O -9.404049200000e-03 -1.142867744000e-01  5.420682590000e-02  5.675093287336e-05 -4.494141000333e-05  2.117301503584e-05
H -8.096061202000e-01  4.064351007000e-01 -1.809644911000e-01 -3.430970488295e-03  6.285461725851e-04 -2.554656315157e-04
3
step 687
H  8.401764592000e-01  4.167158485000e-01 -2.078970999000e-01  2.219488578061e-03 -8.026311252860e-05  8.930094631102e-06
O -9.138848600000e-03 -1.144672720000e-01  5.429160690000e-02  6.371730891530e-05 -3.662912649714e-05  1.714657394245e-05
H -8.244140853000e-01  4.091425686000e-01 -1.820648683000e-01 -3.314268714902e-03  5.974636879778e-04 -2.423662648510e-04
3
step 688
H  8.493649163000e-01  4.161373336000e-01 -2.077437098000e-01  1.971025863393e-03 -1.864385514285e-04  6.237879737583e-05
O -8.846474000000e-03 -1.146073073000e-01  5.435687160000e-02  6.922950810233e-05 -2.662263683714e-05  1.233477065958e-05
H -8.386085071000e-01  4.116633651000e-01 -1.830853814000e-01 -3.153392646148e-03  5.450041147492e-04 -2.197634045471e-04
3
step 689
H  8.574244434000e-01  4.150843685000e-01 -2.073512377000e-01  1.705277953759e-03 -2.962328464873e-04  1.177644004831e-04
O -8.533037500000e-03 -1.147002404000e-01  5.439954560000e-02  7.340432479402e-05 -1.526049427926e-05  6.896133040743e-06
H -8.520086835000e-01  4.139117715000e-01 -1.839879662000e-01 -2.953988773477e-03  4.746151743068e-04 -1.892076396006e-04
3
step 690
H  8.642874030000e-01  4.135450696000e-01 -2.067131812000e-01  1.425770652884e-03 -4.079315738903e-04  1.742302062864e-04
O -8.204130000000e-03 -1.147408483000e-01  5.441721800000e-02  7.635780370122e-05 -2.850708464300e-06  9.748953320398e-07
H -8.644581688000e-01  4.158166109000e-01 -1.847410930000e-01 -2.721426136023e-03  3.894638583182e-04 -1.521208662604e-04
3
step 691
H  8.699010274000e-01  4.115146552000e-01 -2.058265901000e-01  1.135796674013e-03 -5.199842634877e-04  2.310000997876e-04
O -7.864848300000e-03 -1.147251863000e-01  5.440807670000e-02  7.819628981143e-05  1.032976653734e-05 -5.299143529706e-06
H -8.758232442000e-01  4.173198783000e-01 -1.853191401000e-01 -2.460688613452e-03  2.923939455678e-04 -1.097774325332e-04
3
step 692
H  8.742264929000e-01  4.089948094000e-01 -2.046917536000e-01  8.384636174364e-04 -6.309667060901e-04  2.873600542745e-04
O -7.519852700000e-03 -1.146504549000e-01  5.437084640000e-02  7.901069174754e-05  2.403285641590e-05 -1.180961429060e-05
H -8.859910767000e-01  4.183752817000e-01 -1.857017295000e-01 -2.176330916097e-03  1.859207818422e-04 -6.330243776074e-05
3
step 693
H  8.772382255000e-01  4.059932138000e-01 -2.033119698000e-01  5.367497690344e-04 -7.395427533799e-04  3.426393306784e-04
O -7.173444300000e-03 -1.145148804000e-01  5.430473350000e-02  7.887317691393e-05  3.803562294954e-05 -1.845179467840e-05
H -8.948678047000e-01  4.189468273000e-01 -1.858730849000e-01 -1.872480843046e-03  7.225072508689e-05 -1.368109865848e-05
3
step 694
H  8.789234640000e-01  4.025232446000e-01 -2.016933973000e-01  2.335658640230e-04 -8.444264012268e-04  3.961917637821e-04
O -6.829652000000e-03 -1.143176141000e-01  5.420937910000e-02  7.783552592603e-05  5.213560155494e-05 -2.513039702452e-05
H -9.023767166000e-01  4.190075308000e-01 -1.858214496000e-01 -1.552874200233e-03 -4.668408277664e-05  3.822514695005e-05
3
step 695
H  8.792821055000e-01  3.986038367000e-01 -1.998449887000e-01 -6.818154487322e-05 -9.443458294029e-04  4.473779306360e-04
O -6.492323900000e-03 -1.140586540000e-01  5.408482330000e-02  7.592865722338e-05  6.614576858439e-05 -3.175717761593e-05
H -9.084566420000e-01  4.185383059000e-01 -1.855385856000e-01 -1.220910498423e-03 -1.691826293325e-04  9.165892528540e-05
3
step 696
H  8.783268233000e-01  3.942594961000e-01 -1.977784981000e-01 -3.655262667158e-04 -1.038009265139e-03  4.955482560354e-04
O -6.165218200000e-03 -1.137387880000e-01  5.393147950000e-02  7.316290590233e-05  7.988944005757e-05 -3.824851404982e-05
H -9.130606176000e-01  4.175270533000e-01 -1.850193639000e-01 -8.797209609824e-04 -2.937283431813e-04  1.459457718904e-04
3
step 697
H  8.760834711000e-01  3.895204615000e-01 -1.955085623000e-01 -6.553803886373e-04 -1.124074078400e-03  5.400276127238e-04
O -5.852092500000e-03 -1.133595603000e-01  5.375011950000e-02  6.952895620598e-05  9.319527552696e-05 -4.452306486681e-05
H -9.161548734000e-01  4.159679582000e-01 -1.842614484000e-01 -5.322457239857e-04 -4.189408284456e-04  2.004725106634e-04
3
step 698
H  8.725917435000e-01  3.844229879000e-01 -1.930528433000e-01 -9.344722469794e-04 -1.201115840585e-03  5.800998621735e-04
O -5.556786600000e-03 -1.129232581000e-01  5.354186870000e-02  6.499901170753e-05  1.058922499460e-04 -5.049936518971e-05
H -9.177181748000e-01  4.138610006000e-01 -1.832650760000e-01 -1.813145011610e-04 -5.435267947749e-04  2.546652672093e-04
3
step 699
H  8.679061240000e-01  3.790097790000e-01 -1.904322447000e-01 -1.199295030644e-03 -1.267605336830e-03  6.149962898824e-04
O -5.283301400000e-03 -1.124329221000e-01  5.330821150000e-02  5.952887969953e-05  1.178051923451e-04 -5.609376061853e-05
H -9.177415140000e-01  4.112116829000e-01 -1.820329325000e-01  1.702688109343e-04 -6.662321666757e-04  3.079680809955e-04
3
step 700
H  8.620969944000e-01  3.733304714000e-01 -1.876711553000e-01 -1.446067899920e-03 -1.321892622254e-03  6.438875100816e-04
O -5.035863400000e-03 -1.118923725000e-01  5.305100530000e-02  5.306106120936e-05  1.287507358995e-04 -6.121850111135e-05
H -9.162281925000e-01  4.080309594000e-01 -1.805701197000e-01  5.196378937723e-04 -7.857938408724e-04  3.598214169444e-04
3
step 701
H  8.552519235000e-01  3.674422072000e-01 -1.847977364000e-01 -1.670710137318e-03 -1.362195882363e-03  6.658778113728e-04
O -4.818976500000e-03 -1.113062547000e-01  5.277250270000e-02  4.552876436264e-05  1.385334508394e-04 -6.577996742513e-05
H -9.131942849000e-01  4.043353856000e-01 -1.788842198000e-01  8.637746432391e-04 -9.008897706717e-04  4.096398496711e-04
3
step 702
H  8.474770025000e-01  3.614102153000e-01 -1.818442150000e-01 -1.868845238637e-03 -1.386606104641e-03  6.800073919614e-04
O -4.637451900000e-03 -1.106800988000e-01  5.247538030000e-02  3.686192899934e-05  1.469429601304e-04 -6.967740494074e-05
H -9.086695035000e-01  4.001474847000e-01 -1.769854576000e-01  1.199417127397e-03 -1.010088757781e-03  4.567896471568e-04
3
step 703
H  8.388980980000e-01  3.553083430000e-01 -1.788471515000e-01 -2.035841471707e-03 -1.393109759998e-03  6.852636500979e-04
O -4.496406500000e-03 -1.100203913000e-01  5.216277210000e-02  2.699572421647e-05  1.537520470677e-04 -7.280216944311e-05
H -9.026984674000e-01  3.954963362000e-01 -1.748869610000e-01  1.522964829055e-03 -1.111798072888e-03  5.005652848030e-04
3
step 704
H  8.296618321000e-01  3.492194391000e-01 -1.758476338000e-01 -2.166902085644e-03 -1.379634293646e-03  6.806038883785e-04
O -4.401218600000e-03 -1.093346508000e-01  5.183830560000e-02  1.588192565907e-05  1.587162575963e-04 -7.503773626338e-05
H -8.953423961000e-01  3.904184010000e-01 -1.726051284000e-01  1.830387805711e-03 -1.204211515060e-03  5.401660234791e-04
3
step 705
H  8.199360469000e-01  3.432354874000e-01 -1.728913467000e-01 -2.257218266617e-03 -1.344123492226e-03  6.649930978701e-04
O -4.357427500000e-03 -1.086315027000e-01  5.150613460000e-02  3.503835358542e-06  1.615755093137e-04 -7.626066933696e-05
H -8.866811738000e-01  3.849585642000e-01 -1.701600950000e-01  2.117142632903e-03 -1.285258819594e-03  5.746729583859e-04
3
step 706
H  8.099094454000e-01  3.374573302000e-01 -1.700284355000e-01 -2.302197287046e-03 -1.284649510583e-03  6.374600309216e-04
O -4.370557400000e-03 -1.079207415000e-01  5.117096640000e-02 -1.010494048059e-05  1.620583196708e-04 -7.634288386287e-05
H -8.768157783000e-01  3.791714030000e-01 -1.675763004000e-01  2.378102302908e-03 -1.352559568337e-03  6.030279694682e-04
3
step 707
H  7.997900593000e-01  3.319938214000e-01 -1.673130838000e-01 -2.297772371079e-03 -1.199563263191e-03  5.971724860103e-04
O -4.445853400000e-03 -1.072133684000e-01  5.083807590000e-02 -2.483841341107e-05  1.598891470454e-04 -7.515539454743e-05
H -8.658709592000e-01  3.731226332000e-01 -1.648831389000e-01  2.607516502501e-03 -1.403389162939e-03  6.240179422225e-04
3
step 708
H  7.898021793000e-01  3.269602339000e-01 -1.648027193000e-01 -2.240792379376e-03 -1.087683756166e-03  5.435318320487e-04
O -4.587912500000e-03 -1.065215891000e-01  5.051329920000e-02 -4.049408685237e-05  1.547994617733e-04 -7.257385569130e-05
H -8.539980140000e-01  3.668906742000e-01 -1.621156660000e-01  2.799018268373e-03 -1.434664892364e-03  6.362678151622e-04
3
step 709
H  7.801814117000e-01  3.224757564000e-01 -1.625567644000e-01 -2.129474116993e-03 -9.485184200035e-04  4.762829096322e-04
O -4.800207700000e-03 -1.058587547000e-01  5.020299920000e-02 -5.674931930015e-05  1.465427528366e-04 -6.848592968809e-05
H -8.413774080000e-01  3.605682178000e-01 -1.593153087000e-01  2.945702110588e-03 -1.442965062644e-03  6.382485471210e-04
3
step 710
H  7.711676516000e-01  3.186599721000e-01 -1.606348795000e-01 -1.963876595913e-03 -7.824952538538e-04  3.956297466360e-04
O -5.084512500000e-03 -1.052392279000e-01  4.991399490000e-02 -7.314270652560e-05  1.349134290681e-04 -6.280052507375e-05
H -8.282208670000e-01  3.542636259000e-01 -1.565305029000e-01  3.040302854086e-03 -1.424597022928e-03  6.283072083360e-04
3
step 711
H  7.629959890000e-01  3.156283243000e-01 -1.590947015000e-01 -1.746331909374e-03 -5.911751680965e-04  3.023413501082e-04
O -5.440262300000e-03 -1.046781590000e-01  4.965344650000e-02 -8.906664451134e-05  1.197688469398e-04 -5.545835560336e-05
H -8.147724321000e-01  3.481019039000e-01 -1.538171400000e-01  3.075508146218e-03 -1.375733546705e-03  6.047280311101e-04
3
step 712
H  7.558859113000e-01  3.134867371000e-01 -1.579891614000e-01 -1.481747431730e-03 -3.774026500256e-04  1.978266939988e-04
O -5.863913800000e-03 -1.041911589000e-01  4.942869190000e-02 -1.037784370517e-04  1.010531484786e-04 -4.644303870933e-05
H -8.013078178000e-01  3.422249049000e-01 -1.512386700000e-01  3.044436248114e-03 -1.292638444076e-03  5.658330912944e-04
3
step 713
H  7.500295654000e-01  3.123257624000e-01 -1.573635666000e-01 -1.177689107173e-03 -1.453496000163e-04  8.415648182847e-05
O -6.348403000000e-03 -1.037938666000e-01  4.924703440000e-02 -1.164369462626e-04  7.882104890028e-05 -3.579178256695e-05
H -7.881312857000e-01  3.367903286000e-01 -1.488656675000e-01  2.941300100047e-03 -1.171999222951e-03  5.101305376137e-04
3
step 714
H  7.455802306000e-01  3.122148169000e-01 -1.572527278000e-01 -8.441745055369e-04  9.958417520307e-05 -3.598642611984e-05
O -6.882826200000e-03 -1.035014144000e-01  4.911548640000e-02 -1.261686393778e-04  5.325943929286e-05 -2.360455100738e-05
H -7.755691916000e-01  3.319690150000e-01 -1.467746375000e-01  2.762249122119e-03 -1.011371050236e-03  4.365129148979e-04
3
step 715
H  7.426423926000e-01  3.131972001000e-01 -1.576784753000e-01 -4.931496086168e-04  3.510284166123e-04 -1.594353444377e-04
O -7.452475100000e-03 -1.033278058000e-01  4.904047650000e-02 -1.321607874579e-04  2.470442741177e-05 -1.005075550393e-05
H -7.639594927000e-01  3.279400582000e-01 -1.450458456000e-01  2.506326035743e-03 -8.097091989903e-04  3.444958403556e-04
3
step 716
H  7.412647943000e-01  3.152865841000e-01 -1.586479090000e-01 -1.376889806751e-04  6.020402112608e-04 -2.827380721091e-04
O -8.039334200000e-03 -1.032852318000e-01  4.902753460000e-02 -1.337710466659e-04 -6.348702047900e-06  4.627517681480e-06
H -7.536369213000e-01  3.248834401000e-01 -1.437600353000e-01  2.176406845458e-03 -5.679289903264e-04  2.344700089696e-04
3
step 717
H  7.414375087000e-01  3.184655125000e-01 -1.601526498000e-01  2.089744507299e-04  8.455908159883e-04 -4.023997421341e-04
O -8.623074200000e-03 -1.033833618000e-01  4.908097080000e-02 -1.306341735079e-04 -3.924572514498e-05  2.011693365940e-05
H -7.449142677000e-01  3.229702450000e-01 -1.429940536000e-01  1.779925292156e-03 -2.893898105183e-04  1.079210554158e-04
3
step 718
H  7.430934806000e-01  3.226861507000e-01 -1.621692146000e-01  5.344390773540e-04  1.075067419268e-03 -5.151329573730e-04
O -9.182483200000e-03 -1.036286619000e-01  4.920357310000e-02 -1.227415744497e-04 -7.318774030238e-05  3.604044196842e-05
H -7.380612133000e-01  3.223510579000e-01 -1.428156435000e-01  1.329144984720e-03  1.983142719391e-05 -3.244301936405e-05
3
step 719
H  7.461142595000e-01  3.278731749000e-01 -1.646604572000e-01  8.279892601127e-04  1.284711553159e-03 -6.180761257417e-04
O -9.697156900000e-03 -1.040238105000e-01  4.939635230000e-02 -1.104705559303e-04 -1.072629415290e-04  5.197251638562e-05
H -7.332832322000e-01  3.231437852000e-01 -1.432779549000e-01  8.407686776091e-04  3.510104981790e-04 -1.827182321409e-04
3
step 720
H  7.503390201000e-01  3.339283596000e-01 -1.675778536000e-01  1.081191857495e-03  1.469930608927e-03 -7.089484180916e-04
O -1.014918500000e-02 -1.045672946000e-01  4.965837240000e-02 -9.455071815751e-05 -1.404967763200e-04  6.746227519071e-05
H -7.307038441000e-01  3.254226683000e-01 -1.444145678000e-01  3.348079971207e-04  6.932635037784e-04 -3.380194740414e-04
3
step 721
H  7.555755154000e-01  3.407361923000e-01 -1.708642983000e-01  1.288188424018e-03  1.627458015041e-03 -7.861291578399e-04
O -1.052454800000e-02 -1.052532647000e-01  4.998669880000e-02 -7.597151061938e-05 -1.719175673477e-04  8.206329798760e-05
H -7.303534061000e-01  3.292103712000e-01 -1.462358839000e-01 -1.671758379380e-04  1.034429440996e-03 -4.928751000469e-04
3
step 722
H  7.616116543000e-01  3.481698624000e-01 -1.744570851000e-01  1.445690620907e-03  1.755361757569e-03 -8.486617566253e-04
O -1.081399390000e-02 -1.060717049000e-01  5.037648910000e-02 -5.585073272467e-05 -2.006285244510e-04  9.536603429940e-05
H -7.321667606000e-01  3.344747173000e-01 -1.487276020000e-01 -6.441530731480e-04  1.362204416474e-03 -6.417369963962e-04
3
step 723
H  7.682264144000e-01  3.560969506000e-01 -1.782907379000e-01  1.552735944892e-03  1.852927668095e-03 -8.961955251102e-04
O -1.101328460000e-02 -1.070089178000e-01  5.082122450000e-02 -3.529454147150e-05 -2.258733617552e-04  1.070270855795e-04
H -7.359902383000e-01  3.411307020000e-01 -1.518515736000e-01 -1.077602443334e-03  1.665299031006e-03 -7.795032228888e-04
3
step 724
H  7.751992817000e-01  3.643843971000e-01 -1.822994816000e-01  1.610300808886e-03  1.920468395854e-03 -9.288903990249e-04
O -1.112284810000e-02 -1.080482696000e-01  5.131305790000e-02 -1.527948233334e-05 -2.470841243477e-04  1.167903645045e-04
H -7.415966064000e-01  3.490473578000e-01 -1.555488516000e-01 -1.452995678194e-03  1.934388088509e-03 -9.019485900944e-04
3
step 725
H  7.823177785000e-01  3.729025183000e-01 -1.864192396000e-01  1.620848165541e-03  1.959093923797e-03 -9.473027320108e-04
O -1.114699180000e-02 -1.091710929000e-01  5.184322960000e-02  3.424413731296e-06 -2.639033531971e-04  1.244965341488e-04
H -7.487050621000e-01  3.580580777000e-01 -1.597443137000e-01 -1.760566911602e-03  2.162693082227e-03 -1.005990071576e-03
3
step 726
H  7.893829432000e-01  3.815279677000e-01 -1.905891052000e-01  1.587880597755e-03  1.970482057226e-03 -9.522710656075e-04
O -1.109288180000e-02 -1.103576259000e-01  5.240249780000e-02  2.028381278271e-05 -2.761799620849e-04  1.300806310494e-04
H -7.570029138000e-01  3.679725769000e-01 -1.643520344000e-01 -1.995347037457e-03  2.346149224706e-03 -1.089764790212e-03
3
step 727
H  7.962129485000e-01  3.901457439000e-01 -1.947523399000e-01  1.515545459477e-03  1.956674958155e-03 -9.448149358155e-04
O -1.096949290000e-02 -1.115878789000e-01  5.298153460000e-02  3.499220904861e-05 -2.839443712084e-04  1.335604730773e-04
H -7.661658752000e-01  3.785886783000e-01 -1.692805894000e-01 -2.156615364486e-03  2.483214342214e-03 -1.152546866613e-03
3
step 728
H  8.026451255000e-01  3.986503705000e-01 -1.988569587000e-01  1.408310648060e-03  1.919909902972e-03 -9.260505513253e-04
O -1.078667330000e-02 -1.128423563000e-01  5.357125410000e-02  4.743441260058e-05 -2.873712670084e-04  1.350196414957e-04
H -7.758749482000e-01  3.897026021000e-01 -1.744377012000e-01 -2.247013202319e-03  2.574443540501e-03 -1.194558813895e-03
3
step 729
H  8.085367441000e-01  4.069464243000e-01 -2.028559908000e-01  1.270718984590e-03  1.862490639962e-03 -8.971266254143e-04
O -1.055440550000e-02 -1.141025973000e-01  5.416305980000e-02  5.763948604038e-05 -2.867385497583e-04  1.345889088709e-04
H -7.858289598000e-01  4.011170289000e-01 -1.797338929000e-01 -2.271549667274e-03  2.621959614533e-03 -1.216735018932e-03
3
step 730
H  8.137648888000e-01  4.149485886000e-01 -2.067075030000e-01  1.107214103399e-03  1.786695607627e-03 -8.591784873870e-04
O -1.028228360000e-02 -1.153515380000e-01  5.474901010000e-02  6.573344349293e-05 -2.823888546427e-04  1.324286771780e-04
H -7.957527456000e-01  4.126467547000e-01 -1.850850635000e-01 -2.236673969181e-03  2.628926854500e-03 -1.220485589289e-03
3
step 731
H  8.182257145000e-01  4.225813778000e-01 -2.103744598000e-01  9.220299428648e-04  1.694719366086e-03 -8.132989742633e-04
O -9.979187600000e-03 -1.165737158000e-01  5.532191200000e-02  7.189829418719e-05 -2.746972300124e-04  1.287141539551e-04
H -8.054015682000e-01  4.241221501000e-01 -1.904140755000e-01 -2.149511743301e-03  2.599094692571e-03 -1.207490391802e-03
3
step 732
H  8.218333562000e-01  4.297786796000e-01 -2.138244913000e-01  7.191319802694e-04  1.588641358667e-03 -7.605228801380e-04
O -9.653118600000e-03 -1.177553489000e-01  5.587535740000e-02  7.634000411466e-05 -2.640463532654e-04  1.236239201595e-04
H -8.145626179000e-01  4.353908217000e-01 -1.956515282000e-01 -2.017296213201e-03  2.536439475935e-03 -1.179536287381e-03
3
step 733
H  8.245186695000e-01  4.364832051000e-01 -2.170296169000e-01  5.021954828391e-04  1.470414004376e-03 -7.018210275564e-04
O -9.311154100000e-03 -1.188843234000e-01  5.640371590000e-02  7.926554489318e-05 -2.508091289399e-04  1.173318348757e-04
H -8.230544534000e-01  4.463179360000e-01 -2.007359204000e-01 -1.846982807309e-03  2.444907099585e-03 -1.138399682992e-03
3
step 734
H  8.262279509000e-01  4.426459270000e-01 -2.199659622000e-01  2.746122134458e-04  1.341865888475e-03 -6.381018856585e-04
O -8.959484400000e-03 -1.199501207000e-01  5.690210070000e-02  8.086776823232e-05 -2.353379742225e-04  1.100021260301e-04
H -8.307251305000e-01  4.567856293000e-01 -2.056133964000e-01 -1.645017444315e-03  2.328245112427e-03 -1.085769944070e-03
3
step 735
H  8.269217365000e-01  4.482255582000e-01 -2.226134966000e-01  3.951621120948e-05  1.204715356721e-03 -5.702183810120e-04
O -8.603499300000e-03 -1.209437107000e-01  5.736631870000e-02  8.131648785593e-05 -2.179594434182e-04  1.017869814592e-04
H -8.374496146000e-01  4.666918620000e-01 -2.102372381000e-01 -1.417222938534e-03  2.189907082216e-03 -1.023205649770e-03
3
step 736
H  8.265737479000e-01  4.531881081000e-01 -2.249558093000e-01 -2.001778027167e-04  1.060591148992e-03 -4.989781595724e-04
O -8.247903000000e-03 -1.218574326000e-01  5.779281470000e-02  8.075415530885e-05 -1.989729663466e-04  9.282606895118e-05
H -8.431269154000e-01  4.759489917000e-01 -2.145672287000e-01 -1.168770289271e-03  2.033011250595e-03 -9.521153535078e-04
3
step 737
H  8.251700276000e-01  4.575065422000e-01 -2.269799372000e-01 -4.417284040276e-04  9.110576679334e-04 -4.251561707251e-04
O -7.896838700000e-03 -1.226848764000e-01  5.817861780000e-02  7.929472634172e-05 -1.786523476391e-04  8.324729503696e-05
H -8.476772488000e-01  4.844822658000e-01 -2.185689759000e-01 -9.042067652236e-04  1.860337648779e-03 -8.737558048280e-04
3
step 738
H  8.227082865000e-01  4.611605597000e-01 -2.286762510000e-01 -6.825180524433e-04  7.576428896625e-04 -3.495085266458e-04
O -7.554013400000e-03 -1.234207773000e-01  5.852129220000e-02  7.702451112234e-05 -1.572491127324e-04  7.316838656599e-05
H -8.510394164000e-01  4.922283693000e-01 -2.222132604000e-01 -6.275185778608e-04  1.674350715006e-03 -7.892418913942e-04
3
step 739
H  8.191974725000e-01  4.641364971000e-01 -2.300384042000e-01 -9.200012242446e-04  6.018683542870e-04 -2.727873261466e-04
O -7.222815300000e-03 -1.240609265000e-01  5.881889720000e-02  7.400409406784e-05 -1.349968686297e-04  6.269897509556e-05
H -8.531685164000e-01  4.991341155000e-01 -2.254754463000e-01 -3.422123600104e-04  1.477237238648e-03 -6.995635746497e-04
3
step 740
H  8.146575719000e-01  4.664273683000e-01 -2.310633488000e-01 -1.151653454442e-03  4.452793484100e-04 -1.957556019406e-04
O -6.906421000000e-03 -1.246021032000e-01  5.906995620000e-02  7.027068335351e-05 -1.121161583338e-04  5.194280012670e-05
H -8.540340364000e-01  5.051553253000e-01 -2.283349769000e-01 -5.140304846242e-05  1.270951773379e-03 -6.056062126125e-04
3
step 741
H  8.091196236000e-01  4.680330321000e-01 -2.317514155000e-01 -1.374924081480e-03  2.894751927672e-04 -1.192022496228e-04
O -6.607893000000e-03 -1.250420286000e-01  5.927343640000e-02  6.584083981708e-05 -8.881957125690e-05  4.100009518126e-05
H -8.536183324000e-01  5.102559159000e-01 -2.307749640000e-01  2.420958564939e-04  1.057267850991e-03 -5.081735521502e-04
3
step 742
H  8.026259343000e-01  4.689604976000e-01 -2.321064597000e-01 -1.587190815780e-03  1.361388442104e-04 -4.395659096754e-05
O -6.330263300000e-03 -1.253793424000e-01  5.942873840000e-02  6.071322414708e-05 -6.531694962310e-05  2.997000587622e-05
H -8.519155124000e-01  5.144072279000e-01 -2.327818843000e-01  5.356834256980e-04  8.378307219161e-04 -4.080114846176e-04
3
step 743
H  7.952304897000e-01  4.692243511000e-01 -2.321360693000e-01 -1.785718111379e-03 -1.293538557375e-05  2.909796326560e-05
O -6.076605900000e-03 -1.256136019000e-01  5.953569690000e-02  5.487118408521e-05 -4.182034803437e-05  1.895285715401e-05
H -8.489306926000e-01  5.175875757000e-01 -2.343453766000e-01  8.268882363800e-04  6.142088433038e-04 -3.058312941099e-04
3
step 744
H  7.869995347000e-01  4.688473031000e-01 -2.318518303000e-01 -1.967625347000e-03 -1.558181064230e-04  9.901225720837e-05
O -5.850098500000e-03 -1.257453024000e-01  5.959459040000e-02  4.828590386523e-05 -1.854898846603e-05  8.052470794187e-06
H -8.446796077000e-01  5.197820251000e-01 -2.354581421000e-01  1.113285956510e-03  3.879487130797e-04 -2.023345558566e-04
3
step 745
H  7.780122626000e-01  4.678608235000e-01 -2.312696363000e-01 -2.129865438207e-03 -2.904275255006e-04  1.647629106251e-04
O -5.654067300000e-03 -1.257759197000e-01  5.960616220000e-02  4.092005189408e-05  4.266100138949e-06 -2.621699916097e-06
H -8.391885887000e-01  5.209824237000e-01 -2.361159588000e-01  1.392419479781e-03  1.606309564715e-04 -9.823864256319e-05
3
step 746
H  7.683615827000e-01  4.663058401000e-01 -2.304100288000e-01 -2.269216865527e-03 -4.145210503148e-04  2.252482369840e-04
O -5.492016700000e-03 -1.257079708000e-01  5.957164860000e-02  3.273203180871e-05  2.637801822522e-05 -1.295268234713e-05
H -8.324948720000e-01  5.211876689000e-01 -2.363178053000e-01  1.661722945965e-03 -6.607314407712e-05  5.697462988597e-06
3
step 747
H  7.581548789000e-01  4.642334472000e-01 -2.292985419000e-01 -2.382297680088e-03 -5.257014596081e-04  2.792913517567e-04
O -5.367637000000e-03 -1.255450919000e-01  5.949281630000e-02  2.368157284445e-05  4.752059020855e-05 -2.281443037682e-05
H -8.246472417000e-01  5.204042331000e-01 -2.360661016000e-01  1.918446803468e-03 -2.903419558395e-04  1.086458331881e-04
3
step 748
H  7.475146554000e-01  4.617055501000e-01 -2.279660157000e-01 -2.465606290907e-03 -6.214425376872e-04  3.256529027337e-04
O -5.284784800000e-03 -1.252921292000e-01  5.937200490000e-02  1.373687435320e-05  6.740614752677e-05 -3.207083247742e-05
H -8.157069948000e-01  5.186469547000e-01 -2.353670712000e-01  2.159585582501e-03 -5.101417137794e-04  2.096812232194e-04
3
step 749
H  7.365789376000e-01  4.587953495000e-01 -2.264488299000e-01 -2.515596452618e-03 -6.991404299329e-04  3.630563158173e-04
O -5.247428800000e-03 -1.249552365000e-01  5.921217200000e-02  2.883752432264e-06  8.572478356209e-05 -4.057548773513e-05
H -8.057492157000e-01  5.159401029000e-01 -2.342312305000e-01  2.381809402780e-03 -7.231630792412e-04  3.077518073338e-04
3
step 750
H  7.255012619000e-01  4.555875365000e-01 -2.247889952000e-01 -2.528793538739e-03 -7.561971006456e-04  3.902287788664e-04
O -5.259549800000e-03 -1.245419718000e-01  5.901693830000e-02 -8.863042208076e-06  1.021457020946e-04 -4.817242807264e-05
H -7.948643403000e-01  5.123187245000e-01 -2.326740074000e-01  2.581402209788e-03 -9.267578083439e-04  4.016498831262e-04
3
step 751
H  7.144500594000e-01  4.521780464000e-01 -2.230340295000e-01 -2.501958417623e-03 -7.901413281810e-04  4.059605279418e-04
O -5.324987200000e-03 -1.240613835000e-01  5.879062630000e-02 -2.144622543357e-05  1.163211575293e-04 -5.469821178036e-05
H -7.831599714000e-01  5.078302630000e-01 -2.307164867000e-01  2.754212096831e-03 -1.117879589154e-03  4.899843402273e-04
3
step 752
H  7.036072116000e-01  4.486731954000e-01 -2.212365300000e-01 -2.432302107981e-03 -7.987904233811e-04  4.091840129555e-04
O -5.447220700000e-03 -1.235240727000e-01  5.853828710000e-02 -3.475051132416e-05  1.278936039851e-04 -5.998543863771e-05
H -7.707628773000e-01  5.025364228000e-01 -2.283862696000e-01  2.895623014938e-03 -1.293036123590e-03  5.711581799841e-04
3
step 753
H  6.931655552000e-01  4.451880191000e-01 -2.194533563000e-01 -2.317748270213e-03 -7.804509891643e-04  3.990721565081e-04
O -5.629080800000e-03 -1.229422166000e-01  5.826570790000e-02 -4.858654043640e-05  1.365066886195e-04 -6.386810715892e-05
H -7.578210547000e-01  4.965152077000e-01 -2.257184157000e-01  3.000561277438e-03 -1.448263547945e-03  6.433561691105e-04
3
step 754
H  6.833251411000e-01  4.418436521000e-01 -2.177443433000e-01 -2.157231548324e-03 -7.341497437716e-04  3.751513542949e-04
O -5.872390100000e-03 -1.223295348000e-01  5.797939230000e-02 -6.267588225753e-05  1.418204228735e-04 -6.618889624212e-05
H -7.445056706000e-01  4.898630088000e-01 -2.227564109000e-01  3.063553548032e-03 -1.579137823888e-03  7.045494152872e-04
3
step 755
H  6.742881287000e-01  4.387636471000e-01 -2.161704949000e-01 -1.951007805659e-03 -6.598751773524e-04  3.374197733330e-04
O -6.177542700000e-03 -1.217011794000e-01  5.768650440000e-02 -7.663989103708e-05  1.435306047733e-04 -6.680844892904e-05
H -7.310126174000e-01  4.826965436000e-01 -2.195530693000e-01  3.078856365468e-03 -1.680842215997e-03  7.525256913674e-04
3
step 756
H  6.662523301000e-01  4.360692395000e-01 -2.147916621000e-01 -1.700939631363e-03 -5.587992651499e-04  2.864559550382e-04
O -6.543047700000e-03 -1.210735321000e-01  5.739476730000e-02 -8.999600782445e-05  1.413919940472e-04 -6.561640229778e-05
H -7.175633219000e-01  4.751543535000e-01 -2.161712354000e-01  3.040679383450e-03 -1.748312389926e-03  7.849554364635e-04
3
step 757
H  6.594036056000e-01  4.338737260000e-01 -2.136637862000e-01 -1.410709140064e-03 -4.334385551313e-04  2.234977431803e-04
O -6.965076600000e-03 -1.204638913000e-01  5.711231070000e-02 -1.021660020340e-04  1.352441795777e-04 -6.254358753892e-05
H -7.044043465000e-01  4.673974726000e-01 -2.126841087000e-01  2.943525980857e-03 -1.776483302819e-03  7.995044683776e-04
3
step 758
H  6.539075459000e-01  4.322763205000e-01 -2.128358859000e-01 -1.085905497932e-03 -2.877104784925e-04  1.504700528840e-04
O -7.437078400000e-03 -1.198900421000e-01  5.684746300000e-02 -1.125002436087e-04  1.250386444640e-04 -5.757461856918e-05
H -6.918052176000e-01  4.596087655000e-01 -2.091749597000e-01  2.782668452195e-03 -1.760659557216e-03  7.940033265095e-04
3
step 759
H  6.499011017000e-01  4.313560392000e-01 -2.123470581000e-01 -7.339425938837e-04 -1.268483239500e-04  6.994354852777e-05
O -7.949539800000e-03 -1.193697075000e-01  5.660848870000e-02 -1.203211140812e-04  1.108651774268e-04 -5.075990012428e-05
H -6.800538687000e-01  4.519903545000e-01 -2.057359721000e-01  2.554758975895e-03 -1.697018744469e-03  7.666780722482e-04
3
step 760
H  6.474849867000e-01  4.311663006000e-01 -2.122238263000e-01 -3.637829037171e-04  4.284227011180e-05 -1.498419386599e-05
O -8.489980200000e-03 -1.189198870000e-01  5.640327510000e-02 -1.249855748184e-04  9.297543189172e-05 -4.222604970495e-05
H -6.694491221000e-01  4.447585531000e-01 -2.024659400000e-01  2.258549373090e-03 -1.583231710513e-03  7.164353474764e-04
3
step 761
H  6.467177230000e-01  4.317309419000e-01 -2.124781813000e-01  1.452393239439e-05  2.143731101299e-04 -1.008790608427e-04
O -9.043259200000e-03 -1.185561013000e-01  5.623897850000e-02 -1.259617363254e-04  7.180072557518e-05 -3.218329807263e-05
H -6.602898338000e-01  4.381358658000e-01 -1.994666147000e-01  1.895645894195e-03 -1.419140174330e-03  6.431746489816e-04
3
step 762
H  6.476120822000e-01  4.330422293000e-01 -2.131065953000e-01  3.904421590668e-04  3.805648878229e-04 -1.842106639368e-04
O -9.592241800000e-03 -1.182915757000e-01  5.612164660000e-02 -1.229085449936e-04  4.796008092480e-05 -2.092830043231e-05
H -6.528607702000e-01  4.323399909000e-01 -1.968376697000e-01  1.471172114091e-03 -1.207380796813e-03  5.480764861182e-04
3
step 763
H  6.501343906000e-01  4.350611758000e-01 -2.140901655000e-01  7.536139665004e-04  5.345708098361e-04 -2.616085778394e-04
O -1.011880300000e-02 -1.181364139000e-01  5.605583990000e-02 -1.157431600662e-04  2.225351027767e-05 -8.840104785024e-06
H -6.474159522000e-01  4.275703601000e-01 -1.946705261000e-01  9.941722705722e-04 -9.538021728789e-04  4.337956804776e-04
3
step 764
H  6.542067810000e-01  4.377201329000e-01 -2.153958705000e-01  1.094495233751e-03  6.703538908666e-04 -3.300962765157e-04
O -1.060508300000e-02 -1.180968405000e-01  5.604428890000e-02 -1.046790943033e-04 -4.365081198886e-06  3.633012635433e-06
H -6.441610022000e-01  4.239934922000e-01 -1.930416257000e-01  4.775790340207e-04 -6.675100709429e-04  3.044837410752e-04
3
step 765
H  6.597120613000e-01  4.409272852000e-01 -2.169787604000e-01  1.404882495227e-03  7.830524485644e-04 -3.872706923621e-04
O -1.103482520000e-02 -1.181746117000e-01  5.608763150000e-02 -9.022247030955e-05 -3.083843737400e-05  1.599734870998e-05
H -6.432367703000e-01  4.217291363000e-01 -1.920060604000e-01 -6.237259448960e-05 -3.604268588651e-04  1.655878716380e-04
3
step 766
H  6.665005776000e-01  4.445724409000e-01 -2.187847853000e-01  1.678269787202e-03  8.691910565154e-04 -4.314065225151e-04
O -1.139459860000e-02 -1.183667004000e-01  5.618427790000e-02 -7.312228316844e-05 -5.607824197539e-05  2.774726536306e-05
H -6.447068102000e-01  4.208394815000e-01 -1.915926051000e-01 -6.072918937974e-04 -4.635311285766e-05  2.342087335284e-05
3
step 767
H  6.743982059000e-01  4.485333720000e-01 -2.207538976000e-01  1.910015988612e-03  9.267318266156e-04 -4.614824802703e-04
O -1.167470110000e-02 -1.186653392000e-01  5.633044130000e-02 -5.428282409954e-05 -7.905040941771e-05  3.840449126919e-05
H -6.485510390000e-01  4.213235111000e-01 -1.918011099000e-01 -1.138187920936e-03  2.603359896788e-04 -1.154371753912e-04
3
step 768
H  6.832146788000e-01  4.526820534000e-01 -2.228231101000e-01  2.097335381881e-03  9.549875823762e-04 -4.771399455550e-04
O -1.186961480000e-02 -1.190584520000e-01  5.652034660000e-02 -3.465706120921e-05 -9.885887176240e-05  4.755649564060e-05
H -6.546668252000e-01  4.231176205000e-01 -1.926027687000e-01 -1.637150493300e-03  5.461066972027e-04 -2.447892895667e-04
3
step 769
H  6.927514950000e-01  4.568902439000e-01 -2.249292371000e-01  2.239144432035e-03  9.544347210010e-04 -4.785923717058e-04
O -1.197797690000e-02 -1.195304300000e-01  5.674659700000e-02 -1.514326567193e-05 -1.148120643331e-04  5.488673472555e-05
H -6.628773583000e-01  4.261023625000e-01 -1.939432034000e-01 -2.088835891886e-03  7.995086920083e-04 -3.593924304526e-04
3
step 770
H  7.028089056000e-01  4.610340874000e-01 -2.270111595000e-01  2.335816555566e-03  9.264736137637e-04 -4.665086739510e-04
O -1.200213000000e-02 -1.200631454000e-01  5.700064750000e-02  3.495095551273e-06 -1.264605041445e-04  6.019151433389e-05
H -6.729457374000e-01  4.301139333000e-01 -1.957477274000e-01 -2.481493633235e-03  1.012012543861e-03 -4.553425828229e-04
3
step 771
H  7.131916769000e-01  4.649975968000e-01 -2.290115449000e-01  2.388890735628e-03  8.731754624270e-04 -4.418896927825e-04
O -1.194739210000e-02 -1.206370562000e-01  5.727331880000e-02  2.067577394039e-05 -1.336017220421e-04  6.338175882535e-05
H -6.845923261000e-01  4.349582465000e-01 -1.979277994000e-01 -2.807412908107e-03  1.178342444335e-03 -5.302279895479e-04
3
step 772
H  7.237135271000e-01  4.686750407000e-01 -2.308780323000e-01  2.400774172035e-03  7.970460913243e-04 -4.059526612011e-04
O -1.182120120000e-02 -1.212322627000e-01  5.755528640000e-02  3.600978864858e-05 -1.362567356169e-04  6.447179837554e-05
H -6.975127481000e-01  4.404253311000e-01 -2.003876280000e-01 -3.062820569834e-03  1.296341137476e-03 -5.830673055740e-04
3
step 773
H  7.342002876000e-01  4.719723599000e-01 -2.325639412000e-01  2.374467626418e-03  7.008247398091e-04 -3.600325390565e-04
O -1.163227890000e-02 -1.218294069000e-01  5.783749640000e-02  4.928644724047e-05 -1.346278814633e-04  6.355969069655e-05
H -7.113943493000e-01  4.463022233000e-01 -2.030300844000e-01 -3.247371962837e-03  1.366499464939e-03 -6.140932374117e-04
3
step 774
H  7.444919354000e-01  4.748077933000e-01 -2.340285925000e-01  2.313330187934e-03  5.873254978330e-04 -3.055040358664e-04
O -1.138990710000e-02 -1.224103596000e-01  5.811148230000e-02  6.044182844783e-05 -1.290487944103e-04  6.080396821293e-05
H -7.259297372000e-01  4.523832469000e-01 -2.057614136000e-01 -3.363417107928e-03  1.391315164907e-03 -6.244574832201e-04
3
step 775
H  7.544436966000e-01  4.771119073000e-01 -2.352373353000e-01  2.220891143429e-03  4.593217594774e-04 -2.437246283690e-04
O -1.110336660000e-02 -1.229586826000e-01  5.836957760000e-02  6.952093862127e-05 -1.199355980743e-04  5.640096118721e-05
H -7.408268221000e-01  4.584772954000e-01 -2.084945651000e-01 -3.415209832033e-03  1.374627184011e-03 -6.159246887084e-04
3
step 776
H  7.639264320000e-01  4.788272101000e-01 -2.361613694000e-01  2.100709788556e-03  3.194700376145e-04 -1.759967489726e-04
O -1.078154570000e-02 -1.234598879000e-01  5.860503390000e-02  7.664113435694e-05 -1.077450936581e-04  5.056537084712e-05
H -7.558154361000e-01  4.644122864000e-01 -2.111512258000e-01 -3.408180851179e-03  1.321025146101e-03 -5.906014354033e-04
3
step 777
H  7.728265144000e-01  4.799075146000e-01 -2.367774415000e-01  1.956277667178e-03  1.702654512281e-04 -1.035454974187e-04
O -1.043269810000e-02 -1.239015346000e-01  5.881206330000e-02  8.196091608216e-05 -9.294233764244e-05  4.351520327429e-05
H -7.706510120000e-01  4.700372761000e-01 -2.136627795000e-01 -3.348339340529e-03  1.235381621720e-03 -5.507220239501e-04
3
step 778
H  7.810453583000e-01  4.803171631000e-01 -2.370674717000e-01  1.790958988003e-03  1.402354643105e-05 -2.750924274586e-05
O -1.006432490000e-02 -1.242732044000e-01  5.898582520000e-02  8.565535877506e-05 -7.597789634676e-05  3.546125146674e-05
H -7.851159669000e-01  4.752228208000e-01 -2.159704649000e-01 -3.241822857162e-03  1.122515384969e-03 -4.984944944328e-04
3
step 779
H  7.884987757000e-01  4.800302313000e-01 -2.370181684000e-01  1.607962467052e-03 -1.471180945319e-04  5.105996074581e-05
O -9.683148100000e-03 -1.245663993000e-01  5.912237630000e-02  8.789814324998e-05 -5.727379915686e-05  2.660063647501e-05
H -7.990194422000e-01  4.798601445000e-01 -2.180249877000e-01 -3.094586811800e-03  9.869719355577e-04 -4.360002877191e-04
3
step 780
H  7.951162600000e-01  4.790297672000e-01 -2.366206580000e-01  1.410336020687e-03 -3.111858979333e-04  1.311898369238e-04
O -9.295149000000e-03 -1.247743940000e-01  5.921860110000e-02  8.884932408405e-05 -3.721635743867e-05  1.711367167638e-05
H -8.121959690000e-01  4.838595803000e-01 -2.197858010000e-01 -2.912210341778e-03  8.328991028235e-04 -3.651373087241e-04
3
step 781
H  8.008402948000e-01  4.773071167000e-01 -2.358701570000e-01  1.200979806765e-03 -4.763473017164e-04  2.119768122202e-04
O -8.905648600000e-03 -1.248920709000e-01  5.927213410000e-02  8.864788798221e-05 -1.615424927719e-05  7.163126839157e-06
H -8.245035107000e-01  4.871486488000e-01 -2.212202185000e-01 -2.699793901710e-03  6.639940537923e-04 -2.875957868063e-04
3
step 782
H  8.056257521000e-01  4.748613639000e-01 -2.347656987000e-01  9.826722383563e-04 -6.408826116703e-04  2.925723436840e-04
O -8.519412100000e-03 -1.249157560000e-01  5.928128400000e-02  8.740795068110e-05  5.599720677494e-06 -3.104775392968e-06
H -8.358212311000e-01  4.896700362000e-01 -2.223024841000e-01 -2.461925830991e-03  4.835007882556e-04 -2.048573615623e-04
3
step 783
H  8.094394287000e-01  4.716989035000e-01 -2.333099251000e-01  7.581050618242e-04 -8.031542932574e-04  3.721679122932e-04
O -8.140762200000e-03 -1.248430690000e-01  5.924496490000e-02  8.521752734231e-05  2.776468098319e-05 -1.355847166602e-05
H -8.460472452000e-01  4.913796506000e-01 -2.230128772000e-01 -2.202697067931e-03  2.942402801347e-04 -1.182092530163e-04
3
step 784
H  8.122597514000e-01  4.678331494000e-01 -2.315089448000e-01  5.299240389808e-04 -9.615757149182e-04  4.499797145792e-04
O -7.773693500000e-03 -1.246727938000e-01  5.916263700000e-02  8.213893937394e-05  5.008652814302e-05 -2.407860327319e-05
H -8.550965157000e-01  4.922448638000e-01 -2.233369055000e-01 -1.925746087546e-03  9.865930521138e-05 -2.876694306530e-05
3
step 785
H  8.140766695000e-01  4.632843803000e-01 -2.293722583000e-01  3.007743054075e-04 -1.114580083359e-03  5.252333816771e-04
O -7.421983600000e-03 -1.244047736000e-01  5.903425870000e-02  7.820997547198e-05  7.233227224258e-05 -3.455538781324e-05
H -8.628989967000e-01  4.922429950000e-01 -2.232646099000e-01 -1.634321757771e-03 -1.011119181972e-04  6.249914799590e-05
3
step 786
H  8.148917567000e-01  4.580797210000e-01 -2.269127508000e-01  7.334647385218e-05 -1.260591723776e-03  5.971498365621e-04
O -7.089296400000e-03 -1.240398311000e-01  5.886025090000e-02  7.344561032710e-05  9.428443286857e-05 -4.488603655916e-05
H -8.693980814000e-01  4.913600572000e-01 -2.227899901000e-01 -1.331355511443e-03 -3.031991356797e-04  1.547357690565e-04
3
step 787
H  8.147185072000e-01  4.522532383000e-01 -2.241467404000e-01 -1.495780257350e-04 -1.398000066131e-03  6.649323854641e-04
O -6.779278300000e-03 -1.235797127000e-01  5.864147160000e-02  6.783988788865e-05  1.157356132975e-04 -5.497221753712e-05
H -8.745493760000e-01  4.895897706000e-01 -2.219105535000e-01 -1.019536558004e-03 -5.059243179535e-04  2.471794257294e-04
3
step 788
H  8.135828345000e-01  4.458461508000e-01 -2.210940837000e-01 -3.650828494857e-04 -1.525136936281e-03  7.277554594235e-04
O -6.495645500000e-03 -1.230270559000e-01  5.837920190000e-02  6.136819316597e-05  1.364833535170e-04 -6.471766944938e-05
H -8.783198063000e-01  4.869328324000e-01 -2.206269811000e-01 -7.013923884628e-04 -7.077460775032e-04  3.391291370187e-04
3
step 789
H  8.115237530000e-01  4.389071233000e-01 -2.177783234000e-01 -5.700797142791e-04 -1.640261078470e-03  7.847568343996e-04
O -6.242259700000e-03 -1.223853789000e-01  5.807514240000e-02  5.399014111867e-05  1.563255226288e-04 -7.402606700379e-05
H -8.806870960000e-01  4.833964509000e-01 -2.189429141000e-01 -3.793714607409e-04 -9.072023798753e-04  4.299202890345e-04
3
step 790
H  8.085942009000e-01  4.314926115000e-01 -2.142268611000e-01 -7.612811681232e-04 -1.741550841689e-03  8.350338373171e-04
O -6.023190500000e-03 -1.216590880000e-01  5.773141720000e-02  4.565305978066e-05  1.750564014771e-04 -8.279920621534e-05
H -8.816395968000e-01  4.789941175000e-01 -2.168648496000e-01 -5.592615470163e-05 -1.102855609053e-03  5.188995811834e-04
3
step 791
H  8.048619604000e-01  4.236672211000e-01 -2.104711385000e-01 -9.351864519619e-04 -1.827106136071e-03  8.776441139988e-04
O -5.842760500000e-03 -1.208535015000e-01  5.735058600000e-02  3.629656586010e-05  1.924633046578e-04 -9.093544111423e-05
H -8.811764927000e-01  4.737456206000e-01 -2.144021458000e-01  2.664001268932e-04 -1.293237029453e-03  6.053997895181e-04
3
step 792
H  8.004106040000e-01  4.155040350000e-01 -2.065468036000e-01 -1.088088694475e-03 -1.894964408637e-03  9.116133313493e-04
O -5.705567700000e-03 -1.199748868000e-01  5.693566250000e-02  2.585874934147e-05  2.083240618820e-04 -9.832856384384e-05
H -8.793083919000e-01  4.676773041000e-01 -2.115671383000e-01  5.848822691695e-04 -1.476791065087e-03  6.887144478081e-04
3
step 793
H  7.953403518000e-01  4.070848327000e-01 -2.024938244000e-01 -1.216111827706e-03 -1.943135424262e-03  9.359520124541e-04
O -5.616476700000e-03 -1.190305065000e-01  5.649013590000e-02  1.428449732926e-05  2.224057198035e-04 -1.048672835634e-04
H -8.760583253000e-01  4.608225689000e-01 -2.083753675000e-01  8.965180203416e-04 -1.651818879350e-03  7.680722863459e-04
3
step 794
H  7.897686951000e-01  3.985001135000e-01 -1.983565074000e-01 -1.315285227396e-03 -1.969657740728e-03  9.496831684502e-04
O -5.580567500000e-03 -1.180286667000e-01  5.601799360000e-02  1.536523940665e-06  2.344644963088e-04 -1.104353590077e-04
H -8.714631733000e-01  4.532226252000e-01 -2.048459182000e-01  1.197928123873e-03 -1.816420588069e-03  8.426110719490e-04
3
step 795
H  7.838305998000e-01  3.898488206000e-01 -1.941833701000e-01 -1.381665590326e-03 -1.972680877545e-03  9.518825464346e-04
O -5.603030900000e-03 -1.169787628000e-01  5.552374200000e-02 -1.239045493372e-05  2.442473940898e-04 -1.149125035513e-04
H -8.655755378000e-01  4.449274991000e-01 -2.010018759000e-01  1.485253282913e-03 -1.968436910328e-03  9.113511874125e-04
3
step 796
H  7.776780641000e-01  3.812376466000e-01 -1.900268069000e-01 -1.411513865132e-03 -1.950575272049e-03  9.417329561436e-04
O -5.688993400000e-03 -1.158913151000e-01  5.501242120000e-02 -2.745210488453e-05  2.514955786349e-04 -1.181762364745e-04
H -8.584660708000e-01  4.359972963000e-01 -1.968708981000e-01  1.754051732681e-03 -2.105392112874e-03  9.731696589230e-04
3
step 797
H  7.714787736000e-01  3.727797947000e-01 -1.859424863000e-01 -1.401531254527e-03 -1.902069565688e-03  9.185922960048e-04
O -5.843257800000e-03 -1.147779841000e-01  5.448960950000e-02 -4.353372508342e-05  2.559498406077e-04 -1.201047215728e-04
H -8.502262432000e-01  4.265037074000e-01 -1.924858969000e-01  1.999206124040e-03 -2.224443513972e-03  1.026777040365e-03
3
step 798
H  7.654135934000e-01  3.645930827000e-01 -1.819884216000e-01 -1.349151688017e-03 -1.826410311195e-03  8.820728833435e-04
O -6.069946800000e-03 -1.136515582000e-01  5.396141300000e-02 -6.042731543105e-05  2.573582843184e-04 -1.205806708156e-04
H -8.409714877000e-01  4.165317137000e-01 -1.878858135000e-01  2.214852288575e-03 -2.322344590622e-03  1.070700436521e-03
3
step 799
H  7.596726642000e-01  3.567973072000e-01 -1.782236737000e-01 -1.252877705675e-03 -1.723533605587e-03  8.321267863505e-04
O -6.372043100000e-03 -1.125259022000e-01  5.343443640000e-02 -7.780859342372e-05  2.554862011458e-04 -1.194962627731e-04
H -8.308445912000e-01  4.061814155000e-01 -1.831164489000e-01  2.394349284649e-03 -2.395432755630e-03  1.103277684149e-03
3
step 800
H  7.544499550000e-01  3.495108451000e-01 -1.747066756000e-01 -1.112631759995e-03 -1.594230341997e-03  7.691281665971e-04
O -6.750831600000e-03 -1.114158585000e-01  5.291572930000e-02 -9.521735701320e-05  2.501281781927e-04 -1.167590849537e-04
H -8.200190996000e-01  3.955698444000e-01 -1.782312896000e-01  2.530318644249e-03 -2.439657784842e-03  1.122669936027e-03
3
step 801
H  7.499362850000e-01  3.428465720000e-01 -1.714932138000e-01 -9.300789899583e-04 -1.440279514596e-03  6.939401714715e-04
O -7.205267800000e-03 -1.103370893000e-01  5.241270510000e-02 -1.120462764439e-04  2.411221359163e-04 -1.122989309246e-04
H -8.087023672000e-01  3.848325435000e-01 -1.732922281000e-01  2.614787930728e-03 -2.450670225404e-03  1.126902027711e-03
3
step 802
H  7.463110523000e-01  3.369072974000e-01 -1.686341682000e-01 -7.088645488532e-04 -1.264519933458e-03  6.079516532546e-04
O -7.731322200000e-03 -1.093058553000e-01  5.193302780000e-02 -1.275443773767e-04  2.283648741970e-04 -1.060752419463e-04
H -7.971377048000e-01  3.741246051000e-01 -1.683700348000e-01  2.639482027614e-03 -2.423993179610e-03  1.113941483194e-03
3
step 803
H  7.437331779000e-01  3.317810552000e-01 -1.661731718000e-01 -4.547013771720e-04 -1.070830139466e-03  5.130686761479e-04
O -8.321378700000e-03 -1.083387220000e-01  5.148446560000e-02 -1.408420261333e-04  2.118286834575e-04 -9.808480458535e-05
H -7.856048802000e-01  3.636207487000e-01 -1.635443879000e-01  2.596307887091e-03 -2.355301727320e-03  1.081826215745e-03
3
step 804
H  7.423320673000e-01  3.275367145000e-01 -1.641444247000e-01 -1.752601688037e-04 -8.639991264687e-04  4.116520394508e-04
O -8.963797700000e-03 -1.074521923000e-01  5.107471070000e-02 -1.510030348545e-04  1.915789705504e-04 -8.836948489565e-05
H -7.744180245000e-01  3.535139130000e-01 -1.589032277000e-01  2.478072602065e-03 -2.240830213782e-03  1.028849192902e-03
3
step 805
H  7.421995173000e-01  3.242204018000e-01 -1.625709015000e-01  1.201634090130e-04 -6.494858457374e-04  3.063994638609e-04
O -9.642770800000e-03 -1.066622594000e-01  5.071116500000e-02 -1.571062086557e-04  1.677928171356e-04 -7.702394888578e-05
H -7.639198490000e-01  3.440117700000e-01 -1.545411703000e-01  2.279446389400e-03 -2.077911361352e-03  9.538023282939e-04
3
step 806
H  7.433835891000e-01  3.218532165000e-01 -1.614631950000e-01  4.211897152441e-04 -4.330872121364e-04  2.001819120717e-04
O -1.033859720000e-02 -1.059838768000e-01  5.040069220000e-02 -1.583522437094e-04  1.407778854557e-04 -6.420319557495e-05
H -7.544711247000e-01  3.353305989000e-01 -1.505567276000e-01  1.998120564098e-03 -1.865616099261e-03  8.562660426063e-04
3
step 807
H  7.458852496000e-01  3.204305574000e-01 -1.608191566000e-01  7.170446062062e-04 -2.205562997922e-04  9.585445788009e-05
O -1.102847410000e-02 -1.054303452000e-01  5.014933790000e-02 -1.541834653469e-04  1.109894911290e-04 -5.012917127168e-05
H -7.464347655000e-01  3.276862018000e-01 -1.470481874000e-01  1.636019017372e-03 -1.605412148323e-03  7.369074135136e-04
3
step 808
H  7.496582780000e-01  3.199231801000e-01 -1.606243952000e-01  9.973032425318e-04 -1.722484367041e-05 -3.931468825809e-06
O -1.168782050000e-02 -1.050126338000e-01  4.996202360000e-02 -1.443952925985e-04  7.904092910376e-05 -3.509448582039e-05
H -7.401547066000e-01  3.212820144000e-01 -1.441082240000e-01  1.200322625368e-03 -1.301705875270e-03  5.977264444324e-04
3
step 809
H  7.546124159000e-01  3.202798268000e-01 -1.608535600000e-01  1.252577850750e-03  1.723144377905e-04 -9.688687503989e-05
O -1.229204330000e-02 -1.047386766000e-01  4.984223430000e-02 -1.292126657966e-04  4.569966142036e-05 -1.945999452705e-05
H -7.359310242000e-01  3.162952795000e-01 -1.418176237000e-01  7.039922297187e-04 -9.620949929440e-04  4.421725663354e-04
3
step 810
H  7.606192925000e-01  3.214310633000e-01 -1.614722295000e-01  1.475059047382e-03  3.444272566379e-04 -1.811956681225e-04
O -1.281853010000e-02 -1.046127268000e-01  4.979173380000e-02 -1.093062508735e-04  1.186134919576e-05 -3.642566085847e-06
H -7.339942360000e-01  3.128629472000e-01 -1.402388757000e-01  1.654839858641e-04 -5.971707078801e-04  2.750565220265e-04
3
step 811
H  7.675203111000e-01  3.232938288000e-01 -1.624391607000e-01  1.658848399585e-03  4.965382083366e-04 -2.555661850096e-04
O -1.324855670000e-02 -1.046348807000e-01  4.981035900000e-02 -8.573535635195e-05 -2.150146174687e-05  1.190843993555e-05
H -7.344829127000e-01  3.110695790000e-01 -1.394106687000e-01 -3.924897468943e-04 -2.198005441569e-04  1.022252471397e-04
3
step 812
H  7.751354851000e-01  3.257761524000e-01 -1.637086291000e-01  1.800076060572e-03  6.271219862509e-04 -3.192285135892e-04
O -1.356878010000e-02 -1.048008811000e-01  4.989594170000e-02 -5.982343223122e-05 -5.341246362755e-05  2.674450503881e-05
H -7.374288216000e-01  3.109395243000e-01 -1.393443266000e-01 -9.450531824131e-04  1.560407018177e-04 -6.996930170463e-05
3
step 813
H  7.832723538000e-01  3.287816260000e-01 -1.652326544000e-01  1.896822559314e-03  7.356052507960e-04 -3.718871277005e-04
O -1.377205750000e-02 -1.051022807000e-01  5.004439390000e-02 -3.299117257946e-05 -8.297428119348e-05  4.045543423194e-05
H -7.427528510000e-01  3.124350545000e-01 -1.400229536000e-01 -1.467737666951e-03  5.166797249895e-04 -2.353105023387e-04
3
step 814
H  7.917341337000e-01  3.322132611000e-01 -1.669629260000e-01  1.948893403102e-03  8.222094683224e-04 -4.136438058733e-04
O -1.385747810000e-02 -1.055269695000e-01  5.024995770000e-02 -6.585938448135e-06 -1.094429840612e-04  5.270294394970e-05
H -7.502726491000e-01  3.154608672000e-01 -1.414034736000e-01 -1.938962659962e-03  8.500828392310e-04 -3.883255304187e-04
3
step 815
H  8.003266621000e-01  3.359765879000e-01 -1.688523542000e-01  1.957515780639e-03  8.877732397934e-04 -4.449098721435e-04
O -1.382968950000e-02 -1.060599905000e-01  5.050558500000e-02  1.825504388118e-05 -1.322792319590e-04  6.324352176917e-05
H -7.597202577000e-01  3.198739297000e-01 -1.434210990000e-01 -2.341904315858e-03  1.146845774227e-03 -5.247354594983e-04
3
step 816
H  8.088638944000e-01  3.399819562000e-01 -1.708562277000e-01  1.925004506671e-03  9.335734501366e-04 -4.663175226642e-04
O -1.369773250000e-02 -1.066845140000e-01  5.080338690000e-02  4.068577294955e-05 -1.511675370428e-04  7.193664054868e-05
H -7.707661035000e-01  3.254966451000e-01 -1.459953103000e-01 -2.665448538962e-03  1.400681257988e-03 -6.416762977034e-04
3
step 817
H  8.171719242000e-01  3.441460698000e-01 -1.729329893000e-01  1.854440514106e-03  9.611653188010e-04 -4.786402303785e-04
O -1.347365790000e-02 -1.073828221000e-01  5.113508560000e-02  6.017250342467e-05 -1.660047631874e-04  7.873893036598e-05
H -7.830449716000e-01  3.321309623000e-01 -1.490362576000e-01 -2.904205327406e-03  1.608401994336e-03 -7.376898273894e-04
3
step 818
H  8.250916676000e-01  3.483928881000e-01 -1.750446959000e-01  1.749389868289e-03  9.722526328169e-04 -4.827279095461e-04
O -1.317117700000e-02 -1.081371827000e-01  5.149241280000e-02  7.646659876022e-05 -1.768666020604e-04  8.368838561333e-05
H -7.961801220000e-01  3.395713930000e-01 -1.524506606000e-01 -3.057796510824e-03  1.769519344851e-03 -8.125405720023e-04
3
step 819
H  8.324804239000e-01  3.526540242000e-01 -1.771572278000e-01  1.613672130116e-03  9.685869601799e-04 -4.794563190242e-04
O -1.280451660000e-02 -1.089305401000e-01  5.186742300000e-02  8.954865036745e-05 -1.839628776018e-04  8.688388678803e-05
H -8.098030305000e-01  3.476156103000e-01 -1.561466092000e-01 -3.129736346522e-03  1.885630961845e-03 -8.669387505873e-04
3
step 820
H  8.392125333000e-01  3.568687650000e-01 -1.792403056000e-01  1.451184234291e-03  9.518972880028e-04 -4.696915499438e-04
O -1.238755780000e-02 -1.097469986000e-01  5.225271330000e-02  9.956238053724e-05 -1.875919911496e-04  8.846457600998e-05
H -8.235677095000e-01  3.560721065000e-01 -1.600370379000e-01 -3.126205958057e-03  1.959759310191e-03 -9.022417438913e-04
3
step 821
H  8.451793962000e-01  3.609838537000e-01 -1.812673882000e-01  1.265776335605e-03  9.238460263623e-04 -4.542676185260e-04
O -1.193326960000e-02 -1.105721136000e-01  5.264155580000e-02  1.067521199067e-04 -1.881008563716e-04  8.859187459399e-05
H -8.371597243000e-01  3.647650036000e-01 -1.640419147000e-01 -3.054935544971e-03  1.995754101294e-03 -9.201842710971e-04
3
step 822
H  8.502890446000e-01  3.649531245000e-01 -1.832154948000e-01  1.061170014950e-03  8.860048366984e-04 -4.339740100284e-04
O -1.145339510000e-02 -1.113930250000e-01  5.302795990000e-02  1.114114382363e-04 -1.858534597285e-04  8.743529914705e-05
H -8.503007327000e-01  3.735364818000e-01 -1.680893543000e-01 -2.924307588062e-03  1.997816736949e-03 -9.226635788918e-04
3
step 823
H  8.544654457000e-01  3.687370738000e-01 -1.850649928000e-01  8.409131724038e-04  8.398468290675e-04 -4.095513774066e-04
O -1.095833430000e-02 -1.121984735000e-01  5.340668150000e-02  1.138450540260e-04 -1.812084898586e-04  8.516225446077e-05
H -8.627496530000e-01  3.822474284000e-01 -1.721159269000e-01 -2.742708179241e-03  1.970158542655e-03 -9.115841956110e-04
3
step 824
H  8.576476782000e-01  3.723024268000e-01 -1.867993826000e-01  6.083630001459e-04  7.867503515262e-04 -3.816930908935e-04
O -1.045716380000e-02 -1.129787379000e-01  5.377319480000e-02  1.143431179066e-04 -1.745051948144e-04  8.193136895131e-05
H -8.743015276000e-01  3.907768763000e-01 -1.760664134000e-01 -2.518102130679e-03  1.916778044232e-03 -8.887554259165e-04
3
step 825
H  8.597890874000e-01  3.756217413000e-01 -1.884050993000e-01  3.666896895640e-04  7.280106645384e-04 -3.510508329381e-04
O -9.957744600000e-03 -1.137255275000e-01  5.412364370000e-02  1.131656071473e-04 -1.660558398644e-04  7.788878298382e-05
H -8.847849731000e-01  3.990207027000e-01 -1.798932168000e-01 -2.257788991573e-03  1.841332992725e-03 -8.558319959854e-04
3
step 826
H  8.608564935000e-01  3.786730770000e-01 -1.898713460000e-01  1.188947519372e-04  6.648565840918e-04 -3.182427254953e-04
O -9.466878200000e-03 -1.144318536000e-01  5.445478130000e-02  1.105344497724e-04 -1.561431385754e-04  7.316691012366e-05
H -8.940589086000e-01  4.068899487000e-01 -1.835555981000e-01 -1.968295363846e-03  1.747083157974e-03 -8.142878935120e-04
3
step 827
H  8.608295074000e-01  3.814397451000e-01 -1.911899666000e-01 -1.321607646028e-04  5.984700822701e-04 -2.838629474705e-04
O -8.990483600000e-03 -1.150918994000e-01  5.476391010000e-02  1.066309876407e-04 -1.450211167370e-04  6.788483481589e-05
H -9.020090634000e-01  4.143090170000e-01 -1.870188589000e-01 -1.655362363813e-03  1.636882548727e-03 -7.654131588451e-04
3
step 828
H  8.596999857000e-01  3.839101481000e-01 -1.923553639000e-01 -3.837228242821e-04  5.300071220022e-04 -2.484920469612e-04
O -8.533775400000e-03 -1.157008993000e-01  5.504882550000e-02  1.015969775006e-04 -1.329180606748e-04  6.214973397528e-05
H -9.085445957000e-01  4.212139233000e-01 -1.902535488000e-01 -1.323994523047e-03  1.513203698513e-03 -7.103251937140e-04
3
step 829
H  8.574716391000e-01  3.860777129000e-01 -1.933644622000e-01 -6.331071955091e-04  4.606190083389e-04 -2.127075277591e-04
O -8.101432300000e-03 -1.162550341000e-01  5.530776780000e-02  9.553763529557e-05 -1.200406768868e-04  5.605892480724e-05
H -9.135950283000e-01  4.275507070000e-01 -1.932347477000e-01 -9.785453306186e-04  1.378180925863e-03 -6.499886497750e-04
3
step 830
H  8.541598134000e-01  3.879409168000e-01 -1.942167175000e-01 -8.776632071866e-04  3.914728163805e-04 -1.770939924644e-04
O -7.697748000000e-03 -1.167513470000e-01  5.553938400000e-02  8.852591007585e-05 -1.065787499223e-04  4.970206347274e-05
H -9.171076160000e-01  4.332740608000e-01 -1.959414468000e-01 -6.228211280081e-04  1.233663563937e-03 -5.852396733486e-04
3
step 831
H  8.497914146000e-01  3.895033995000e-01 -1.949141701000e-01 -1.114739598554e-03  3.237697622421e-04 -1.422522479743e-04
O -7.326762800000e-03 -1.171876797000e-01  5.574269890000e-02  8.060705959865e-05 -9.270978654683e-05  4.316333918218e-05
H -9.190451897000e-01  4.383462070000e-01 -1.983560426000e-01 -2.601885877097e-04  1.081270735170e-03 -5.168106666835e-04
3
step 832
H  8.444049890000e-01  3.907741499000e-01 -1.954615335000e-01 -1.341655310315e-03  2.587616907553e-04 -1.088074876254e-04
O -6.992374600000e-03 -1.175626286000e-01  5.591709620000e-02  7.180370588603e-05 -7.860366447858e-05  3.652362714999e-05
H -9.193844652000e-01  4.427360069000e-01 -2.004639355000e-01  1.063156460695e-04  9.224489462295e-04 -4.453562056901e-04
3
step 833
H  8.380509042000e-01  3.917677623000e-01 -1.958663188000e-01 -1.555676944891e-03  1.977645508608e-04 -7.741598317993e-05
O -6.698425500000e-03 -1.178755220000e-01  5.606230860000e-02  6.212126103622e-05 -6.442716227827e-05  2.986256841281e-05
H -9.181148465000e-01  4.464183410000e-01 -2.022532501000e-01  4.738762217738e-04  7.585304006350e-04 -3.714793324987e-04
3
step 834
H  8.307916256000e-01  3.925047411000e-01 -1.961389826000e-01 -1.754004998482e-03  1.421659972298e-04 -4.876885135330e-05
O -6.448766000000e-03 -1.181264156000e-01  5.617841660000e-02  5.155333932183e-05 -5.034785843661e-05  2.326034795971e-05
H -9.152376857000e-01  4.493737282000e-01 -2.037146639000e-01  8.397989749659e-04  5.907870968844e-04 -2.957560196069e-04
3
step 835
H  8.227020186000e-01  3.930118235000e-01 -1.962930836000e-01 -1.933773920494e-03  9.342615362599e-05 -2.359246977798e-05
O -6.247294300000e-03 -1.183161042000e-01  5.626585440000e-02  4.008793264993e-05 -3.653771506108e-05  1.679929459232e-05
H -9.107659630000e-01  4.515881801000e-01 -2.048413416000e-01  1.201412628350e-03  4.204867778478e-04 -2.187605299471e-04
3
step 836
H  8.138696243000e-01  3.933222914000e-01 -1.963454347000e-01 -2.092067293922e-03  5.306997471572e-05 -2.644628197091e-06
O -6.097965900000e-03 -1.184461486000e-01  5.632542320000e-02  2.771452765404e-05 -2.317628216709e-05  1.056529337277e-05
H -9.047244061000e-01  4.530533092000e-01 -2.056289859000e-01  1.555970962612e-03  2.489511656755e-04 -1.410919882780e-04
3
step 837
H  8.043948292000e-01  3.934762264000e-01 -1.963162261000e-01 -2.225952872288e-03  2.266766378069e-05  1.329515297484e-05
O -6.004771000000e-03 -1.185189145000e-01  5.635830890000e-02  1.443221927042e-05 -1.045324374119e-05  4.648891812646e-06
H -8.971500266000e-01  4.537666932000e-01 -2.060760044000e-01  1.900557921858e-03  7.761607997030e-05 -6.340179821607e-05
3
step 838
H  7.943908337000e-01  3.935206508000e-01 -1.962290919000e-01 -2.332541061385e-03  3.800490563529e-06  2.344263602146e-05
O -5.971673000000e-03 -1.185376224000e-01  5.636610460000e-02  2.593281829387e-07  1.429762989530e-06 -8.539641912958e-07
H -8.880930702000e-01  4.537325093000e-01 -2.061838002000e-01  2.231993496130e-03 -9.190474150689e-05  1.357707575367e-05
3
step 839
H  7.839833104000e-01  3.935094836000e-01 -1.961110851000e-01 -2.409069926701e-03 -1.990792793369e-06  2.703434941073e-05
O -6.002501700000e-03 -1.185064029000e-01  5.635083600000e-02 -1.475546872158e-05  1.225814650202e-05 -5.841596672069e-06
H -8.776183759000e-01  4.529624564000e-01 -2.059571946000e-01  2.546741496327e-03 -2.577517996259e-04  8.899892928912e-05
3
step 840
H  7.733096288000e-01  3.935032299000e-01 -1.959925207000e-01 -2.453018358382e-03  6.723119596641e-06  2.336266129972e-05
O -6.100794600000e-03 -1.184303543000e-01  5.631498620000e-02 -3.052046746123e-05  2.180438840352e-05 -1.020673729433e-05
H -8.658071337000e-01  4.514769839000e-01 -2.054049914000e-01  2.840821305921e-03 -4.177481784385e-04  1.618721599476e-04
3
step 841
H  7.625175231000e-01  3.935683160000e-01 -1.959066440000e-01 -2.462246689794e-03  3.116905075274e-05  1.182059390203e-05
O -6.269579100000e-03 -1.183155979000e-01  5.626151930000e-02 -4.688699074979e-05  2.982915876253e-05 -1.383722672181e-05
H -8.527590161000e-01  4.493068403000e-01 -2.045406894000e-01  3.109728207922e-03 -5.693260110359e-04  2.310249067615e-04
3
step 842
H  7.517630865000e-01  3.937759829000e-01 -1.958890815000e-01 -2.435160276364e-03  7.226191496565e-05 -8.044348075821e-06
O -6.511091700000e-03 -1.181693263000e-01  5.619389990000e-02 -6.363501668190e-05  3.608372047011e-05 -1.661730821848e-05
H -8.385946328000e-01  4.464949457000e-01 -2.033833467000e-01  3.348370556085e-03 -7.094553269132e-04  2.950715537385e-04
3
step 843
H  7.412080076000e-01  3.942006631000e-01 -1.959770382000e-01 -2.370886828646e-03  1.304817159808e-04 -3.646982613976e-05
O -6.826434200000e-03 -1.179998377000e-01  5.611610510000e-02 -8.045980847346e-05  4.031369119658e-05 -1.842960233306e-05
H -8.234582121000e-01  4.430985634000e-01 -2.019585876000e-01  3.551036808654e-03 -8.345835772568e-04  3.523838866690e-04
3
step 844
H  7.310160129000e-01  3.949177978000e-01 -1.962082204000e-01 -2.269453379705e-03  2.057459695817e-04 -7.341608148036e-05
O -7.215176500000e-03 -1.178165507000e-01  5.603262670000e-02 -9.696156108119e-05  4.226463375995e-05 -1.915787694252e-05
H -8.075203440000e-01  4.391917009000e-01 -2.002997182000e-01  3.711410356775e-03 -9.405985730420e-04  4.010731335539e-04
3
step 845
H  7.213485543000e-01  3.960010977000e-01 -1.966194851000e-01 -2.131939729985e-03  2.972937411571e-04 -1.185090668022e-04
O -7.674922100000e-03 -1.176299898000e-01  5.594845900000e-02 -1.126412735635e-04  4.168956175531e-05 -1.869064922286e-05
H -7.909805320000e-01  4.348676062000e-01 -1.984488908000e-01  3.822656735158e-03 -1.022833293756e-03  4.389913496260e-04
3
step 846
H  7.123599092000e-01  3.975193454000e-01 -1.972452654000e-01 -1.960590419238e-03  4.035954090203e-04 -1.709961941931e-04
O -8.200873900000e-03 -1.174517351000e-01  5.586906930000e-02 -1.269059006301e-04  3.835914666244e-05 -1.692593494817e-05
H -7.740691731000e-01  4.302411270000e-01 -1.964582080000e-01  3.877613882012e-03 -1.076136171536e-03  4.637628934552e-04
3
step 847
H  7.041918882000e-01  3.995328663000e-01 -1.981158326000e-01 -1.758858064443e-03  5.223097744438e-04 -2.297252581098e-04
O -8.785445800000e-03 -1.172943179000e-01  5.580034420000e-02 -1.390864767716e-04  3.207528923060e-05 -1.377739195342e-05
H -7.570484440000e-01  4.254505914000e-01 -1.943906107000e-01  3.869117788292e-03 -1.095036964671e-03  4.728596980815e-04
3
step 848
H  6.969685556000e-01  4.020899556000e-01 -1.992555371000e-01 -1.531354682922e-03  6.503081007011e-04 -2.931563063398e-04
O -9.417987000000e-03 -1.171710518000e-01  5.574850660000e-02 -1.484722298482e-04  2.268857623794e-05 -9.182209730426e-06
H -7.402114324000e-01  4.206587158000e-01 -1.923203239000e-01  3.790491200103e-03 -1.074041735233e-03  4.637358695323e-04
3
step 849
H  6.907913631000e-01  4.052235597000e-01 -2.006811746000e-01 -1.283706475323e-03  7.837718828040e-04 -3.594096540895e-04
O -1.008469140000e-02 -1.170957756000e-01  5.571999280000e-02 -1.543617354742e-04  1.012089337147e-05 -3.111298251217e-06
H -7.238787461000e-01  4.160519045000e-01 -1.903325671000e-01  3.636212954472e-03 -1.008085851761e-03  4.340354537989e-04
3
step 850
H  6.857351418000e-01  4.089485592000e-01 -2.024006466000e-01 -1.022313165518e-03  9.183660575001e-04 -4.263509508317e-04
O -1.076877020000e-02 -1.170824862000e-01  5.572128030000e-02 -1.561306093852e-04 -5.606366953524e-06  4.418022855678e-06
H -7.083917872000e-01  4.118371934000e-01 -1.885221816000e-01  3.402759999434e-03 -8.931574227449e-04  3.818800871150e-04
3
step 851
H  6.818453408000e-01  4.132599653000e-01 -2.044120716000e-01 -7.540328967287e-04  1.049473817029e-03 -4.917064662257e-04
O -1.145095370000e-02 -1.171448355000e-01  5.575865390000e-02 -1.533109610623e-04 -2.433929819377e-05  1.332714560616e-05
H -6.941019928000e-01  4.082360938000e-01 -1.869908241000e-01  3.089561317487e-03 -7.270649643679e-04  3.062249145511e-04
3
step 852
H  6.791367771000e-01  4.181322580000e-01 -2.067034544000e-01 -4.858230629232e-04  1.172469517831e-03 -5.531970395485e-04
O -1.211035850000e-02 -1.172954737000e-01  5.583790300000e-02 -1.456723512253e-04 -4.575727466870e-05  2.346076929313e-05
H -6.813557620000e-01  4.054748187000e-01 -1.858424793000e-01  2.699924482293e-03 -5.102611867619e-04  2.072418479333e-04
3
step 853
H  6.775940173000e-01  4.235199706000e-01 -2.092529689000e-01 -2.243822646998e-04  1.282993632507e-03 -6.086730301814e-04
O -1.272569820000e-02 -1.175452467000e-01  5.596395350000e-02 -1.332882911610e-04 -6.934489458501e-05  3.457428444674e-05
H -6.704755880000e-01  4.037709180000e-01 -1.851772994000e-01  2.241728068993e-03 -2.465658930876e-04  8.665720032251e-05
3
step 854
H  6.771732606000e-01  4.293594338000e-01 -2.120298090000e-01  2.416908221936e-05  1.377197240442e-03 -6.562342842631e-04
O -1.327673300000e-02 -1.179022946000e-01  5.614045440000e-02 -1.165706717132e-04 -9.438106441965e-05  4.632898239606e-05
H -6.617389263000e-01  4.033171785000e-01 -1.850841625000e-01  1.727641813245e-03  5.642016407964e-05 -5.205283850556e-05
3
step 855
H  6.778055152000e-01  4.355715001000e-01 -2.149955209000e-01  2.545440938041e-04  1.451932795127e-03 -6.943238819220e-04
O -1.374578070000e-02 -1.183711532000e-01  5.636936760000e-02 -9.625774147638e-05 -1.199569447793e-04  5.830042025200e-05
H -6.553574004000e-01  4.042646376000e-01 -1.856328016000e-01  1.174676853976e-03  3.874142455249e-04 -2.037036567215e-04
3
step 856
H  6.794007162000e-01  4.420649566000e-01 -2.181056742000e-01  4.624522606210e-04  1.504866937147e-03 -7.217836478510e-04
O -1.411906190000e-02 -1.189520096000e-01  5.665062770000e-02 -7.334956843875e-05 -1.450286315086e-04  7.000267478668e-05
H -6.514596052000e-01  4.067073495000e-01 -1.868667254000e-01  6.029985960365e-04  7.321771162471e-04 -3.617341959875e-04
3
step 857
H  6.818523263000e-01  4.487402371000e-01 -2.213116801000e-01  6.446737041984e-04  1.534517674939e-03 -7.378726685457e-04
O -1.438764560000e-02 -1.196402647000e-01  5.698194450000e-02 -4.899940033824e-05 -1.685017288667e-04  8.092740187543e-05
H -6.500807014000e-01  4.106717475000e-01 -1.887982525000e-01  3.413173571215e-05  1.074818846716e-03 -5.188089559643e-04
3
step 858
H  6.850421043000e-01  4.554931602000e-01 -2.245626245000e-01  7.990560778681e-04  1.540226528931e-03 -7.422539311869e-04
O -1.454784410000e-02 -1.204265287000e-01  5.735880440000e-02 -2.438292866468e-05 -1.893336994358e-04  9.059112836187e-05
H -6.511609263000e-01  4.161128367000e-01 -1.914067006000e-01 -5.111095240167e-04  1.399449379411e-03 -6.675816623976e-04
3
step 859
H  6.888446783000e-01  4.622183976000e-01 -2.278069699000e-01  9.244441043555e-04  1.522075658799e-03 -7.349540985862e-04
O -1.460101490000e-02 -1.212970794000e-01  5.777468620000e-02 -5.731338883821e-07 -2.066318761230e-04  9.858057838052e-05
H -6.545533007000e-01  4.229180002000e-01 -1.946401028000e-01 -1.014536565461e-03  1.691816726162e-03 -8.014552783811e-04
3
step 860
H  6.931316974000e-01  4.688124867000e-01 -2.309940352000e-01  1.020567288454e-03  1.480773414036e-03 -7.163077243493e-04
O -1.455285950000e-02 -1.222347157000e-01  5.822145990000e-02  2.155407428958e-05 -2.197268957392e-04  1.045866178175e-04
H -6.600388975000e-01  4.309175274000e-01 -1.984200475000e-01 -1.461972246476e-03  1.940588337251e-03 -9.151782356540e-04
3
step 861
H  6.977754229000e-01  4.751762978000e-01 -2.340752104000e-01  1.087904134611e-03  1.417526473137e-03 -6.868948583314e-04
O -1.441240020000e-02 -1.232198579000e-01  5.868989920000e-02  4.136967658142e-05 -2.282089061197e-04  1.084209339949e-04
H -6.673466764000e-01  4.398996328000e-01 -2.026486125000e-01 -1.843907816740e-03  2.138057553934e-03 -1.005174974843e-03
3
step 862
H  7.026516909000e-01  4.812169278000e-01 -2.370048907000e-01  1.127537807551e-03  1.333912119908e-03 -6.474786932315e-04
O -1.419084320000e-02 -1.242317182000e-01  5.917022600000e-02  5.849679622484e-05 -2.319253446037e-04  1.100148380615e-04
H -6.761745015000e-01  4.496271668000e-01 -2.072160975000e-01 -2.155445331930e-03  2.280238640130e-03 -1.069592931069e-03
3
step 863
H  7.076422413000e-01  4.868490494000e-01 -2.397411444000e-01  1.141015714832e-03  1.231761371397e-03 -5.989483124563e-04
O -1.390050850000e-02 -1.252493820000e-01  5.965261320000e-02  7.278207062901e-05 -2.309485705788e-04  1.094042400202e-04
H -6.862084720000e-01  4.598534654000e-01 -2.120083690000e-01 -2.395703246266e-03  2.366469372598e-03 -1.108120218459e-03
3
step 864
H  7.126364514000e-01  4.919957822000e-01 -2.422461467000e-01  1.130221367201e-03  1.113059174053e-03 -5.422698166780e-04
O -1.355394440000e-02 -1.262526949000e-01  6.012759680000e-02  8.424788412248e-05 -2.255265577921e-04  1.067068072971e-04
H -6.971387378000e-01  4.703355843000e-01 -2.169129972000e-01 -2.566929847742e-03  2.398720244191e-03 -1.121666261497e-03
3
step 865
H  7.175325430000e-01  4.965891687000e-01 -2.444864201000e-01  1.097263485425e-03  9.798641638786e-04 -4.784468530006e-04
O -1.316327510000e-02 -1.272229119000e-01  6.058637940000e-02  9.303936687303e-05 -2.160287962232e-04  1.020969703555e-04
H -7.086710720000e-01  4.808441027000e-01 -2.218238069000e-01 -2.673547766811e-03  2.380808160037e-03 -1.111997616584e-03
3
step 866
H  7.222383463000e-01  5.005703433000e-01 -2.464329227000e-01  1.044385237946e-03  8.342482100080e-04 -4.084908118508e-04
O -1.273977870000e-02 -1.281431121000e-01  6.102102340000e-02  9.937573171391e-05 -2.028964632980e-04  9.578277957581e-05
H -7.205343261000e-01  4.911694771000e-01 -2.266438271000e-01 -2.721286376814e-03  2.317661818343e-03 -1.081397489802e-03
3
step 867
H  7.266717128000e-01  5.038894788000e-01 -2.480610272000e-01  9.738943727009e-04  6.782545669329e-04 -3.334001339306e-04
O -1.229366140000e-02 -1.289984112000e-01  6.142455200000e-02  1.035107895962e-04 -1.866016365978e-04  8.798683949487e-05
H -7.324844098000e-01  5.011254167000e-01 -2.312868622000e-01 -2.716482915659e-03  2.214719801874e-03 -1.032386707602e-03
3
step 868
H  7.307606672000e-01  5.065055897000e-01 -2.493504289000e-01  8.881133060599e-04  5.138722630297e-04 -2.541476073278e-04
O -1.183398010000e-02 -1.297760192000e-01  6.179097560000e-02  1.057037727112e-04 -1.676171707789e-04  7.893207462138e-05
H -7.443056299000e-01  5.105499697000e-01 -2.356780006000e-01 -2.665568962719e-03  2.077485090051e-03 -9.675168457447e-04
3
step 869
H  7.344433837000e-01  5.083862543000e-01 -2.502850132000e-01  7.893474593068e-04  3.430241838862e-04 -1.716743154734e-04
O -1.136867250000e-02 -1.304651897000e-01  6.211526800000e-02  1.061993088128e-04 -1.463966581817e-04  6.883216684362e-05
H -7.558101775000e-01  5.193050007000e-01 -2.397533748000e-01 -2.574724233673e-03  1.911224646362e-03 -8.892305112349e-04
3
step 870
H  7.376680613000e-01  5.095073137000e-01 -2.508527106000e-01  6.798674590535e-04  1.675645719493e-04 -8.688828411783e-05
O -1.090465490000e-02 -1.310571019000e-01  6.239330970000e-02  1.052152074286e-04 -1.233626995706e-04  5.788598334518e-05
H -7.668364367000e-01  5.272746476000e-01 -2.434594478000e-01 -2.449668342717e-03  1.720789187258e-03 -7.997773679454e-04
3
step 871
H  7.403927441000e-01  5.098525725000e-01 -2.510453522000e-01  5.619044473644e-04 -1.071490314887e-05 -6.672833707643e-07
O -1.044795890000e-02 -1.315447077000e-01  6.262181470000e-02  1.029361884075e-04 -9.890187143132e-05  4.627529109053e-05
H -7.772466496000e-01  5.343632226000e-01 -2.467520387000e-01 -2.295559590838e-03  1.510526213761e-03 -7.011736235904e-04
3
step 872
H  7.425851552000e-01  5.094135501000e-01 -2.508585498000e-01  4.376560195226e-04 -1.900728073838e-04  8.613517967935e-05
O -1.000388450000e-02 -1.319225690000e-01  6.279825390000e-02  9.951190723606e-05 -7.336437857241e-05  3.416477510909e-05
H -7.869243394000e-01  5.404929075000e-01 -2.495952535000e-01 -2.116969628601e-03  1.284260086347e-03 -5.951927596779e-04
3
step 873
H  7.442225691000e-01  5.081892900000e-01 -2.502916035000e-01  3.092977338810e-04 -3.688033150461e-04  1.726828215810e-04
O -9.577153600000e-03 -1.321867022000e-01  6.292078260000e-02  9.505779153614e-05 -4.706670989330e-05  2.170346008527e-05
H -7.957717534000e-01  5.456014808000e-01 -2.519604307000e-01 -1.917907495194e-03  1.045316393102e-03 -4.833768265227e-04
3
step 874
H  7.452917470000e-01  5.061862389000e-01 -2.493474430000e-01  1.790015102531e-04 -5.452185325731e-04  2.581479798433e-04
O -9.172056100000e-03 -1.323344387000e-01  6.298817580000e-02  8.965746371056e-05 -2.029607685326e-05  9.026881597163e-06
H -8.037074972000e-01  5.496402257000e-01 -2.538251705000e-01 -1.701874553047e-03  7.965728298465e-04 -3.670600526101e-04
3
step 875
H  7.457889692000e-01  5.034182107000e-01 -2.480326112000e-01  4.895595727952e-05 -7.176312794822e-04  3.417031565323e-04
O -8.792582200000e-03 -1.323643084000e-01  6.299977470000e-02  8.336594523428e-05  6.684407552834e-06 -3.740450098846e-06
H -8.106644578000e-01  5.525721025000e-01 -2.551724870000e-01 -1.471934758267e-03  5.405231351124e-04 -2.473984785767e-04
3
step 876
H  7.457201490000e-01  4.999064162000e-01 -2.463572789000e-01 -7.861253227466e-05 -8.843393366061e-04  4.225133526555e-04
O -8.442540300000e-03 -1.322759450000e-01  6.295544400000e-02  7.621309863913e-05  3.363047668229e-05 -1.648261828073e-05
H -8.165880524000e-01  5.543702167000e-01 -2.559900965000e-01 -1.230790155744e-03  2.793451024856e-04 -1.254015430198e-04
3
step 877
H  7.451010494000e-01  4.956795649000e-01 -2.443352961000e-01 -2.014206654763e-04 -1.043613118027e-03  4.997299384125e-04
O -8.125659300000e-03 -1.320700160000e-01  6.285553920000e-02  6.820730262111e-05  6.031164097355e-05 -2.908995025193e-05
H -8.214348133000e-01  5.550165859000e-01 -2.562698464000e-01 -9.808583672368e-04  1.496891291636e-05 -1.963759728417e-06
3
step 878
H  7.439575641000e-01  4.907740030000e-01 -2.419842596000e-01 -3.171106050530e-04 -1.193686565588e-03  5.724861461599e-04
O -7.845674200000e-03 -1.317481720000e-01  6.270088470000e-02  5.933920028403e-05  8.650642950506e-05 -4.145683238957e-05
H -8.251713136000e-01  5.545012061000e-01 -2.560072809000e-01 -7.243499194705e-04 -2.508560276965e-04  1.221042130342e-04
3
step 879
H  7.423260890000e-01  4.852338942000e-01 -2.393256043000e-01 -4.232378104558e-04 -1.332753629200e-03  6.398952465714e-04
O -7.606395900000e-03 -1.313130185000e-01  6.249276020000e-02  4.958560279827e-05  1.119981709357e-04 -5.347974460203e-05
H -8.277734292000e-01  5.528214037000e-01 -2.552013411000e-01 -4.633429347455e-04 -5.164974186436e-04  2.460460436831e-04
3
step 880
H  7.402539095000e-01  4.791113891000e-01 -2.363846867000e-01 -5.172725691545e-04 -1.458977372331e-03  7.010548911145e-04
O -7.411762200000e-03 -1.307681024000e-01  6.223289600000e-02  3.891437583060e-05  1.365716383693e-04 -6.505573360523e-05
H -8.292259187000e-01  5.499814585000e-01 -2.538541898000e-01 -1.998592797094e-04 -7.803778846990e-04  3.691308566934e-04
3
step 881
H  7.377995583000e-01  4.724667260000e-01 -2.331908377000e-01 -5.966115156299e-04 -1.570507954436e-03  7.550557878642e-04
O -7.265865400000e-03 -1.301179122000e-01  6.192347280000e-02  2.728999791540e-05  1.600102884535e-04 -7.608114217667e-05
H -8.295223508000e-01  5.459925002000e-01 -2.519711637000e-01  6.405812025952e-05 -1.040913445500e-03  4.906246910957e-04
3
step 882
H  7.350331023000e-01  4.653682430000e-01 -2.297773709000e-01 -6.586055695026e-04 -1.665512900307e-03  8.009964476416e-04
O -7.172953900000e-03 -1.293678899000e-01  6.156712780000e-02  1.468022044373e-05  1.820943415476e-04 -8.645079094122e-05
H -8.286653612000e-01  5.408726695000e-01 -2.495608484000e-01  3.262674135758e-04 -1.296452597445e-03  6.097622789436e-04
3
step 883
H  7.320362557000e-01  4.578922139000e-01 -2.261815060000e-01 -7.006109162189e-04 -1.742225150731e-03  8.380066836738e-04
O -7.137402200000e-03 -1.285244474000e-01  6.116696220000e-02  1.064464643458e-06  2.025999635080e-04 -9.605768582527e-05
H -8.266672613000e-01  5.346475481000e-01 -2.466352773000e-01  5.844455073575e-04 -1.545214595660e-03  7.257184352438e-04
3
step 884
H  7.289022207000e-01  4.501224400000e-01 -2.224441713000e-01 -7.200653569458e-04 -1.799008345927e-03  8.652796362224e-04
O -7.163639000000e-03 -1.275949853000e-01  6.072654960000e-02 -1.355587075057e-05  2.212994668138e-04 -1.047932374661e-04
H -8.235510159000e-01  5.273508597000e-01 -2.432102569000e-01  8.360013915767e-04 -1.785226506362e-03  8.375789359308e-04
3
step 885
H  7.257351329000e-01  4.421495146000e-01 -2.186096471000e-01 -7.145934193814e-04 -1.834440095973e-03  8.821126010136e-04
O -7.256026400000e-03 -1.265879078000e-01  6.024994130000e-02 -2.914497172687e-05  2.379626087391e-04 -1.125480337159e-04
H -8.193516096000e-01  5.190254504000e-01 -2.393058208000e-01  1.077984439648e-03 -2.014258897053e-03  9.443108016084e-04
3
step 886
H  7.226489816000e-01  4.340696857000e-01 -2.147250112000e-01 -6.821414956531e-04 -1.847411748090e-03  8.879559438188e-04
O -7.418679800000e-03 -1.255126304000e-01  5.974166820000e-02 -4.561796799175e-05  2.523588677251e-04 -1.192130966744e-04
H -8.141178273000e-01  5.097245533000e-01 -2.349468149000e-01  1.306988000859e-03 -2.229760969044e-03  1.044732311600e-03
3
step 887
H  7.197658730000e-01  4.259832484000e-01 -2.108393533000e-01 -6.211408497794e-04 -1.837240280855e-03  8.824680396504e-04
O -7.655218500000e-03 -1.243795746000e-01  5.920673550000e-02 -6.282436298949e-05  2.642605471089e-04 -1.246815236886e-04
H -8.079144646000e-01  4.995133360000e-01 -2.301636138000e-01  1.519051013543e-03 -2.428797774380e-03  1.137483991626e-03
3
step 888
H  7.172135239000e-01  4.179924276000e-01 -2.070027407000e-01 -5.306916290099e-04 -1.803784454045e-03  8.655724060528e-04
O -7.968441000000e-03 -1.232001484000e-01  5.865060940000e-02 -8.053043087006e-05  2.734465233672e-04 -1.288504757502e-04
H -8.008249688000e-01  4.884707146000e-01 -2.249929598000e-01  1.709564120715e-03 -2.607995006949e-03  1.221003038903e-03
3
step 889
H  7.151219152000e-01  4.101987544000e-01 -2.032649326000e-01 -4.107554641280e-04 -1.747553649409e-03  8.375114766862e-04
O -8.359921400000e-03 -1.219867084000e-01  5.807919520000e-02 -9.840214826717e-05  2.797064423206e-04 -1.316232801688e-04
H -7.929544707000e-01  4.766913845000e-01 -2.194789031000e-01  1.873192332837e-03 -2.763500779538e-03  1.293505522549e-03
3
step 890
H  7.136190994000e-01  4.026999963000e-01 -1.996738745000e-01 -2.623342423914e-04 -1.669792320424e-03  7.988887416419e-04
O -8.829535100000e-03 -1.207525030000e-01  5.749880510000e-02 -1.159913669358e-04  2.828453632995e-04 -1.329117526549e-04
H -7.844331028000e-01  4.642879686000e-01 -2.136737969000e-01  2.003833614295e-03 -2.890978954703e-03  1.352983426134e-03
3
step 891
H  7.128262899000e-01  3.955867942000e-01 -1.962740449000e-01 -8.761127918891e-05 -1.572523673050e-03  7.506911317710e-04
O -9.374934600000e-03 -1.195115951000e-01  5.691611570000e-02 -1.327284132565e-04  2.826890523951e-04 -1.326387525245e-04
H -7.754193935000e-01  4.513931069000e-01 -2.076392630000e-01  2.094639558160e-03 -2.985651929599e-03  1.397224952188e-03
3
step 892
H  7.128524337000e-01  3.889392110000e-01 -1.931047528000e-01  1.099709287578e-04 -1.458537721629e-03  6.942842556724e-04
O -9.991010300000e-03 -1.182787576000e-01  5.633811450000e-02 -1.479248674208e-04  2.790906104512e-04 -1.307413275676e-04
H -7.661034041000e-01  4.381612300000e-01 -2.014470096000e-01  2.138132550805e-03 -3.042415254532e-03  1.423868304929e-03
3
step 893
H  7.137886196000e-01  3.828234733000e-01 -1.901985264000e-01  3.257317301272e-04 -1.331306843699e-03  6.313719963681e-04
O -1.066939040000e-02 -1.170693387000e-01  5.577202910000e-02 -1.607912121739e-04  2.719390848835e-04 -1.271746222774e-04
H -7.567090979000e-01  4.247696458000e-01 -1.951793261000e-01  2.126460853599e-03 -3.056051195996e-03  1.430500753596e-03
3
step 894
H  7.157028355000e-01  3.772892576000e-01 -1.875797648000e-01  5.538848376970e-04 -1.194829757062e-03  5.639206779337e-04
O -1.139805640000e-02 -1.158990826000e-01  5.522523920000e-02 -1.704730765031e-04  2.611716606125e-04 -1.219173310884e-04
H -7.474952448000e-01  4.114184440000e-01 -1.889290336000e-01  2.051840310573e-03 -3.021569232620e-03  1.414815866709e-03
3
step 895
H  7.186355357000e-01  3.723677988000e-01 -1.852637891000e-01  7.877825081373e-04 -1.053415351260e-03  4.940534427335e-04
O -1.216116020000e-02 -1.147838868000e-01  5.470515920000e-02 -1.761087117547e-04  2.467911122528e-04 -1.149794919799e-04
H -7.387539255000e-01  3.983286034000e-01 -1.827986048000e-01  1.907228314636e-03 -2.934694739297e-03  1.374839631721e-03
3
step 896
H  7.225965351000e-01  3.680710674000e-01 -1.832564192000e-01  1.020261280924e-03 -9.114248129751e-04  4.239237070563e-04
O -1.293914240000e-02 -1.137394715000e-01  5.421908070000e-02 -1.769086829525e-04  2.288892123518e-04 -1.064129129936e-04
H -7.308055379000e-01  3.857376199000e-01 -1.768981350000e-01  1.687249623769e-03 -2.792504273349e-03  1.309224957272e-03
3
step 897
H  7.275636025000e-01  3.643921344000e-01 -1.815541323000e-01  1.244050084370e-03 -7.730057887024e-04  3.555841691400e-04
O -1.370924660000e-02 -1.127809311000e-01  5.377396470000e-02 -1.722531311508e-04  2.076757528522e-04 -9.632401682449e-05
H -7.239892004000e-01  3.738920545000e-01 -1.713418848000e-01  1.389337431543e-03 -2.594162762649e-03  1.217592809074e-03
3
step 898
H  7.334829251000e-01  3.613066754000e-01 -1.801447857000e-01  1.452196680625e-03 -6.418505773225e-04  2.908671076374e-04
O -1.444648910000e-02 -1.119221498000e-01  5.337617190000e-02 -1.617957551994e-04  1.835088967239e-04 -8.488718822531e-05
H -7.186477725000e-01  3.630367110000e-01 -1.662432664000e-01  1.014957497800e-03 -2.341657256316e-03  1.100869944954e-03
3
step 899
H  7.402714344000e-01  3.587754508000e-01 -1.790088226000e-01  1.638461359256e-03 -5.210079865505e-04  2.312906846662e-04
O -1.512508320000e-02 -1.111750879000e-01  5.303113690000e-02 -1.455564116481e-04  1.569190067379e-04 -7.235509081888e-05
H -7.151075458000e-01  3.534007621000e-01 -1.617084306000e-01  5.706792321464e-04 -2.040363682025e-03  9.615483390261e-04
3
step 900
H  7.478207156000e-01  3.567474569000e-01 -1.781208152000e-01  1.797628882539e-03 -4.127682115732e-04  1.780008297470e-04
O -1.572021910000e-02 -1.105489885000e-01  5.274300950000e-02 -1.239787874176e-04  1.286142084081e-04 -5.906078348438e-05
H -7.136538926000e-01  3.451819678000e-01 -1.578289828000e-01  6.877343369320e-05 -1.699244259597e-03  8.037743807547e-04
3
step 901
H  7.560020624000e-01  3.551634132000e-01 -1.774511792000e-01  1.925715255956e-03 -3.186264542299e-04  1.317517580783e-04
O -1.620999250000e-02 -1.100496152000e-01  5.251430990000e-02 -9.793202708622e-05  9.945740228738e-05 -4.540693272921e-05
H -7.145057256000e-01  3.385310748000e-01 -1.546747898000e-01 -4.729713043233e-04 -1.330512156610e-03  6.331927743123e-04
3
step 902
H  7.646721973000e-01  3.539592317000e-01 -1.769678865000e-01  2.020050884348e-03 -2.393179416650e-04  9.292182286471e-05
O -1.657719920000e-02 -1.096786601000e-01  5.234566410000e-02 -6.864348391243e-05  7.040970662666e-05 -3.183966640357e-05
H -7.177927534000e-01  3.335389685000e-01 -1.522880616000e-01 -1.032398948817e-03 -9.486955062344e-04  4.565130633397e-04
3
step 903
H  7.736790531000e-01  3.530691981000e-01 -1.766380421000e-01  2.079256400321e-03 -1.749053655400e-04  6.155540422585e-05
O -1.681067540000e-02 -1.094334764000e-01  5.223568840000e-02 -3.756853236076e-05  4.244640072440e-05 -1.880983880159e-05
H -7.235400063000e-01  3.302292633000e-01 -1.506799512000e-01 -1.585026854127e-03 -5.692167040216e-04  2.808524586908e-04
3
step 904
H  7.828672816000e-01  3.524286759000e-01 -1.764292297000e-01  2.103132113905e-03 -1.248998908815e-04  3.742173833846e-05
O -1.690595260000e-02 -1.093072217000e-01  5.218106360000e-02 -6.222806769764e-06  1.646252860868e-05 -6.729605886659e-06
H -7.316629510000e-01  3.285578869000e-01 -1.498303877000e-01 -2.106596236164e-03 -2.067765491878e-04  1.129893345596e-04
3
step 905
H  7.920830681000e-01  3.519762284000e-01 -1.763105733000e-01  2.092483426681e-03 -8.839514208090e-05  2.008052541416e-05
O -1.686512980000e-02 -1.092894166000e-01  5.217679920000e-02  2.398661588748e-05 -6.810604518878e-06  4.065879930798e-06
H -7.419743350000e-01  3.284198103000e-01 -1.496912081000e-01 -2.575576442589e-03  1.261034885028e-04 -4.130912416150e-05
3
step 906
H  8.011781124000e-01  3.516551508000e-01 -1.762535097000e-01  2.048923381613e-03 -6.419591392590e-05  8.945307015302e-06
O -1.669605140000e-02 -1.093668196000e-01  5.221664310000e-02  5.189438835956e-05 -2.685971782239e-05  1.334317163350e-05
H -7.542012153000e-01  3.296613889000e-01 -1.501918741000e-01 -2.975081589811e-03  4.200728528963e-04 -1.777426031821e-04
3
step 907
H  8.100127152000e-01  3.514144651000e-01 -1.762322950000e-01  1.974672150296e-03 -5.093177081116e-05  3.339612003027e-06
O -1.641101420000e-02 -1.095244597000e-01  5.229356220000e-02  7.665263049464e-05 -4.340658648542e-05  2.097791895109e-05
H -7.680085750000e-01  3.320957691000e-01 -1.512465919000e-01 -3.293874594050e-03  6.693405943208e-04 -2.936535885746e-04
3
step 908
H  8.184580044000e-01  3.512094588000e-01 -1.762242855000e-01  1.872372628508e-03 -4.714953236605e-05  2.542968514216e-06
O -1.602528220000e-02 -1.097466605000e-01  5.240021600000e-02  9.774604563311e-05 -5.639095977596e-05  2.694634796222e-05
H -7.830251380000e-01  3.355186312000e-01 -1.527615677000e-01 -3.526423280723e-03  8.715025161286e-04 -3.879431592796e-04
3
step 909
H  8.263974082000e-01  3.510018706000e-01 -1.762100421000e-01  1.744931213557e-03 -5.138385471204e-05  5.826215159799e-06
O -1.555566150000e-02 -1.100179237000e-01  5.252936340000e-02  1.149588629265e-04 -6.593043655467e-05  3.130630503770e-05
H -7.988674766000e-01  3.397220829000e-01 -1.546413913000e-01 -3.672215616887e-03  1.026975934975e-03 -4.608073575850e-04
3
step 910
H  8.337274875000e-01  3.507598108000e-01 -1.761733017000e-01  1.595391081652e-03 -6.220579764481e-05  1.247604287896e-05
O -1.501930420000e-02 -1.103236022000e-01  5.267417010000e-02  1.283133935668e-04 -7.227070048321e-05  3.417411372114e-05
H -8.151598341000e-01  3.445054563000e-01 -1.567939846000e-01 -3.734655698047e-03  1.138251814778e-03 -5.133923552758e-04
3
step 911
H  8.403583007000e-01  3.504575223000e-01 -1.761008672000e-01  1.426837983562e-03 -7.825234890994e-05  2.181013875788e-05
O -1.443282120000e-02 -1.106503476000e-01  5.282841300000e-02  1.379992529752e-04 -7.573681571122e-05  3.570230467611e-05
H -8.315485712000e-01  3.496826571000e-01 -1.591339672000e-01 -3.719844334784e-03  1.209141886261e-03 -5.474490986877e-04
3
step 912
H  8.462134115000e-01  3.500750429000e-01 -1.759824463000e-01  1.242332972790e-03 -9.824181942828e-05  3.318525846682e-05
O -1.381170520000e-02 -1.109863573000e-01  5.298659260000e-02  1.443072454397e-04 -7.669206933205e-05  3.606092474895e-05
H -8.477113179000e-01  3.550863728000e-01 -1.615845830000e-01 -3.635461518459e-03  1.244133889614e-03 -5.650380842339e-04
3
step 913
H  8.512296646000e-01  3.495978312000e-01 -1.758104708000e-01  1.044870365815e-03 -1.209774178406e-04  4.599938378575e-05
O -1.317002240000e-02 -1.113214619000e-01  5.314397370000e-02  1.475751882805e-04 -7.550684724694e-05  3.542347191283e-05
H -8.633616408000e-01  3.605697805000e-01 -1.640784827000e-01 -3.489866477046e-03  1.247903100626e-03 -5.683057025317e-04
3
step 914
H  8.553568266000e-01  3.490163979000e-01 -1.755799165000e-01  8.373557828706e-04 -1.453427389019e-04  5.968983476937e-05
O -1.252030940000e-02 -1.116471000000e-01  5.329657510000e-02  1.481480341940e-04 -7.253755257973e-05  3.395720011543e-05
H -8.782503195000e-01  3.660064797000e-01 -1.665576927000e-01 -3.291443455758e-03  1.224980167736e-03 -5.593312780622e-04
3
step 915
H  8.585571684000e-01  3.483259710000e-01 -1.752881391000e-01  6.225994788165e-04 -1.702919174854e-04  7.372862558183e-05
O -1.187361370000e-02 -1.119562210000e-01  5.344112520000e-02  1.463510941655e-04 -6.811420447537e-05  3.181725921988e-05
H -8.921642891000e-01  3.712892941000e-01 -1.689730593000e-01 -3.048170778730e-03  1.179550059891e-03 -5.400337973259e-04
3
step 916
H  8.608050483000e-01  3.475262133000e-01 -1.749347346000e-01  4.033207084671e-04 -1.948367428519e-04  8.761625246836e-05
O -1.123962530000e-02 -1.122431514000e-01  5.357500040000e-02  1.424741302884e-04 -6.253465117741e-05  2.914382896965e-05
H -9.049241458000e-01  3.763284451000e-01 -1.712834016000e-01 -2.767372070768e-03  1.115350530281e-03 -5.121251197901e-04
3
step 917
H  8.620865331000e-01  3.466210005000e-01 -1.745214298000e-01  1.821587747710e-04 -2.180327307246e-04  1.008749194905e-04
O -1.062685610000e-02 -1.125034471000e-01  5.369615600000e-02  1.367637221460e-04 -5.606357354363e-05  2.606151104169e-05
H -9.163809119000e-01  3.810494645000e-01 -1.734545459000e-01 -2.455604559688e-03  1.035640795654e-03 -4.770962008083e-04
3
step 918
H  8.623990770000e-01  3.456182601000e-01 -1.740520019000e-01 -3.831063890369e-05 -2.389649530998e-04  1.130415859910e-04
O -1.004283810000e-02 -1.127337505000e-01  5.380305860000e-02  1.294213332662e-04 -4.893445515954e-05  2.268027067842e-05
H -9.264125644000e-01  3.853910944000e-01 -1.754583583000e-01 -2.118644321033e-03  9.432168812547e-04 -4.362247435225e-04
3
step 919
H  8.617512857000e-01  3.445298743000e-01 -1.735322295000e-01 -2.555589125026e-04 -2.567353947804e-04  1.236617499948e-04
O -9.494320400000e-03 -1.129316610000e-01  5.389462570000e-02  1.206053315166e-04 -4.135328944279e-05  1.909720110482e-05
H -9.349206706000e-01  3.893033338000e-01 -1.772718462000e-01 -1.761534388154e-03  8.404548307644e-04 -3.905955490838e-04
3
step 920
H  8.601627410000e-01  3.433716290000e-01 -1.729698670000e-01 -4.670901271119e-04 -2.704528056925e-04  1.322844246478e-04
O -8.987449200000e-03 -1.130956234000e-01  5.397017370000e-02  1.104354641414e-04 -3.350288098140e-05  1.539861248869e-05
H -9.418273379000e-01  3.927457172000e-01 -1.788763682000e-01 -1.388670417863e-03  7.293686120927e-04 -3.411274720097e-04
3
step 921
H  8.576638898000e-01  3.421632053000e-01 -1.723746395000e-01 -6.704293585539e-04 -2.792251495450e-04  1.384584402550e-04
O -8.527925600000e-03 -1.132248368000e-01  5.402937540000e-02  9.899877267310e-05 -2.554741656267e-05  1.166223974763e-05
H -9.470725991000e-01  3.956858672000e-01 -1.802569725000e-01 -1.003906482324e-03  6.116742489145e-04 -2.886030495940e-04
3
step 922
H  8.542959712000e-01  3.409281953000e-01 -1.717582497000e-01 -8.631170184524e-04 -2.821560384274e-04  1.417306707209e-04
O -8.121134200000e-03 -1.133191828000e-01  5.407222720000e-02  8.635611579051e-05 -1.763664309354e-05  7.959194378326e-06
H -9.506122877000e-01  3.980983348000e-01 -1.814018657000e-01 -6.106653405564e-04  4.888529008683e-04 -2.336974502321e-04
3
step 923
H  8.501109555000e-01  3.396941241000e-01 -1.711343877000e-01 -1.042712831029e-03 -2.783463052434e-04  1.416468197667e-04
O -7.772243500000e-03 -1.133791709000e-01  5.409902440000e-02  7.254967494839e-05 -9.909748404233e-06  4.355756299917e-06
H -9.524163881000e-01  3.999637041000e-01 -1.823020040000e-01 -2.120531986843e-04  3.622143368638e-04 -1.770074628872e-04
3
step 924
H  8.451714362000e-01  3.384924522000e-01 -1.705187317000e-01 -1.206810112996e-03 -2.669011939399e-04  1.377550046166e-04
O -7.486269100000e-03 -1.134059007000e-01  5.411034340000e-02  5.761093996487e-05 -2.498743809548e-06  9.149325748475e-07
H -9.524679154000e-01  4.012679874000e-01 -1.829508165000e-01  1.890268736915e-04  2.329581960112e-04 -1.190795860621e-04
3
step 925
H  8.395504438000e-01  3.373585345000e-01 -1.699289261000e-01 -1.353062971179e-03 -2.469447719605e-04  1.296129233718e-04
O -7.268103700000e-03 -1.134010369000e-01  5.410703080000e-02  4.156929341376e-05  4.468797844769e-06 -2.302344981561e-06
H -9.507622583000e-01  4.020022665000e-01 -1.833440415000e-01  5.897663541325e-04  1.022319436970e-04 -6.043650777018e-05
3
step 926
H  8.333311001000e-01  3.363314965000e-01 -1.693845194000e-01 -1.479228790232e-03 -2.176422460093e-04  1.167989443258e-04
O -7.122506000000e-03 -1.133667953000e-01  5.409019610000e-02  2.446158235907e-05  1.086744295450e-05 -5.236241600927e-06
H -9.473070086000e-01  4.021625951000e-01 -1.834796821000e-01  9.873414895317e-04 -2.881004329685e-05 -1.604248304940e-06
3
step 927
H  8.266060602000e-01  3.354539984000e-01 -1.689068459000e-01 -1.583225128232e-03 -1.782299708551e-04  9.892703951647e-05
O -7.054046100000e-03 -1.133059384000e-01  5.406120970000e-02  6.342558585050e-06  1.657207788745e-05 -7.827224202774e-06
H -9.421222649000e-01  4.017501566000e-01 -1.833580799000e-01  1.378804555908e-03 -1.589467288738e-04  5.686036787640e-05
3
step 928
H  8.194766689000e-01  3.347718479000e-01 -1.685188322000e-01 -1.663204823255e-03 -1.280564926002e-04  7.566718522789e-05
O -7.067003700000e-03 -1.132217770000e-01  5.402170190000e-02 -1.270343785396e-05  2.145653767478e-05 -1.001559057856e-05
H -9.352414139000e-01  4.007716896000e-01 -1.829821104000e-01  1.760973248646e-03 -2.868277442453e-04  1.143409009576e-04
3
step 929
H  8.120517455000e-01  3.343334061000e-01 -1.682447002000e-01 -1.717643258892e-03 -6.663024736713e-05  4.676912676944e-05
O -7.165210900000e-03 -1.131181773000e-01  5.397356560000e-02 -3.254999972458e-05  2.539251353509e-05 -1.174103057289e-05
H -9.267124017000e-01  3.992401944000e-01 -1.823575095000e-01  2.130319460224e-03 -4.109070714437e-04  1.701307658614e-04
3
step 930
H  8.044459763000e-01  3.341887823000e-01 -1.681095665000e-01 -1.745436522519e-03  6.325517789288e-06  1.208966294757e-05
O -7.351841100000e-03 -1.129995731000e-01  5.391895900000e-02 -5.301545148293e-05  2.824855639012e-05 -1.294226497225e-05
H -9.165994888000e-01  3.971759383000e-01 -1.814933361000e-01  2.482857829386e-03 -5.293723112208e-04  2.234005722478e-04
3
step 931
H  7.967778406000e-01  3.343887592000e-01 -1.681389064000e-01 -1.746005935589e-03  9.081175821409e-05 -2.837713029120e-05
O -7.629136700000e-03 -1.128709808000e-01  5.386031090000e-02 -7.384939216553e-05  2.988923122442e-05 -1.355672553297e-05
H -9.049854962000e-01  3.946077817000e-01 -1.804025836000e-01  2.814036105012e-03 -6.400697364578e-04  2.731633298423e-04
3
step 932
H  7.891670886000e-01  3.349834546000e-01 -1.683578881000e-01 -1.719396737577e-03  1.864941991344e-04 -7.447048071817e-05
O -7.998079800000e-03 -1.127380194000e-01  5.380032720000e-02 -9.472020733832e-05  3.017399261219e-05 -1.352007045218e-05
H -8.919745200000e-01  3.915748385000e-01 -1.791029479000e-01  3.118634930882e-03 -7.404275171640e-04  3.182385384328e-04
3
step 933
H  7.817318037000e-01  3.360207261000e-01 -1.687905801000e-01 -1.666359861682e-03  2.926506499802e-04 -1.258369746624e-04
O -8.458011000000e-03 -1.126069353000e-01  5.374199990000e-02 -1.152049214125e-04  2.895582712176e-05 -1.276552613959e-05
H -8.776950547000e-01  3.881284744000e-01 -1.776177529000e-01  3.390689018282e-03 -8.273828171366e-04  3.572176080355e-04
3
step 934
H  7.745851650000e-01  3.375443717000e-01 -1.694590580000e-01 -1.588406732324e-03  4.081314695554e-04 -1.819111529931e-04
O -9.006211000000e-03 -1.124846338000e-01  5.368861910000e-02 -1.347833238723e-04  2.607976773115e-05 -1.122330212588e-05
H -8.623033970000e-01  3.843346058000e-01 -1.759770206000e-01  3.623448909346e-03 -8.973220277580e-04  3.884351802601e-04
3
step 935
H  7.678320296000e-01  3.395921887000e-01 -1.703824419000e-01 -1.487824738079e-03  5.313412042147e-04 -2.419065930421e-04
O -9.637468200000e-03 -1.123787173000e-01  5.364378750000e-02 -1.528386777847e-04  2.138189734377e-05 -8.820115675617e-06
H -8.459871046000e-01  3.802762202000e-01 -1.742186479000e-01  3.809409372290e-03 -9.460491821856e-04  4.099531982736e-04
3
step 936
H  7.615655603000e-01  3.421940138000e-01 -1.715759257000e-01 -1.367640348043e-03  6.602503445499e-04 -3.048219560750e-04
O -1.034366640000e-02 -1.122975258000e-01  5.361143630000e-02 -1.686681234609e-04  1.468968247356e-05 -5.479447764913e-06
H -8.289681506000e-01  3.760559517000e-01 -1.723896165000e-01  3.940438213005e-03 -9.688041023371e-04  4.195679918956e-04
3
step 937
H  7.558641303000e-01  3.453698844000e-01 -1.730498672000e-01 -1.231527302720e-03  7.924407934144e-04 -3.694636047427e-04
O -1.111344330000e-02 -1.122501714000e-01  5.359583810000e-02 -1.815055153170e-04  5.825410658712e-06 -1.123120086383e-06
H -8.115052556000e-01  3.717984431000e-01 -1.705471070000e-01  4.008046934819e-03 -9.603589070234e-04  4.148545342997e-04
3
step 938
H  7.507887542000e-01  3.491284770000e-01 -1.748090149000e-01 -1.083661694118e-03  9.251862931769e-04 -4.344854167424e-04
O -1.193197850000e-02 -1.122465490000e-01  5.360160820000e-02 -1.905595442548e-04 -5.385115441375e-06  4.324796721135e-06
H -7.938946736000e-01  3.676520766000e-01 -1.687593219000e-01  4.003848741886e-03 -9.152291432029e-04  3.932641340434e-04
3
step 939
H  7.463812614000e-01  3.534659723000e-01 -1.768519470000e-01 -9.285340187563e-04  1.055563922259e-03 -4.984439297110e-04
O -1.278098510000e-02 -1.122972953000e-01  5.363368340000e-02 -1.950689419783e-04 -1.909617262331e-05  1.093075170485e-05
H -7.764685159000e-01  3.637894879000e-01 -1.671057449000e-01  3.920244568338e-03 -8.280385952276e-04  3.522925757956e-04
3
step 940
H  7.426633711000e-01  3.583654688000e-01 -1.791707806000e-01 -7.707353357895e-04  1.180587546321e-03 -5.598642280355e-04
O -1.363898100000e-02 -1.124136551000e-01  5.369726060000e-02 -1.943747581024e-04 -3.541577430015e-05  1.874002090608e-05
H -7.595895345000e-01  3.604061054000e-01 -1.656764924000e-01  3.751355682465e-03 -6.940700526868e-04  2.897337073070e-04
3
step 941
H  7.396367376000e-01  3.637970165000e-01 -1.817511873000e-01 -6.147389775232e-04  1.297350438942e-03 -6.173103047008e-04
O -1.448191300000e-02 -1.126072104000e-01  5.379767290000e-02 -1.880058383937e-04 -5.436851260741e-05  2.775988140284e-05
H -7.436412837000e-01  3.577158439000e-01 -1.645703533000e-01  3.494165771997e-03 -5.100058856555e-04  2.040221111633e-04
3
step 942
H  7.372839348000e-01  3.697182777000e-01 -1.845727181000e-01 -4.646996206959e-04  1.403162435334e-03 -6.694527399439e-04
O -1.528417600000e-02 -1.128894212000e-01  5.394018080000e-02 -1.757683666554e-04 -7.584960127845e-05  3.793849772734e-05
H -7.290129108000e-01  3.559431637000e-01 -1.638911428000e-01  3.149746514659e-03 -2.748059839321e-04  9.464165877760e-05
3
step 943
H  7.355702604000e-01  3.760757613000e-01 -1.876094110000e-01 -3.242880529257e-04  1.495668024877e-03 -7.151268813099e-04
O -1.602002060000e-02 -1.132709524000e-01  5.412966380000e-02 -1.578240887454e-04 -9.957693926431e-05  4.914261067387e-05
H -7.160785920000e-01  3.553110813000e-01 -1.637421664000e-01  2.724337726022e-03  9.407328333031e-06 -3.745986529057e-05
3
step 944
H  7.344461662000e-01  3.828065172000e-01 -1.908306254000e-01 -1.965759644984e-04  1.572934329716e-03 -7.533761861477e-04
O -1.666525750000e-02 -1.137607956000e-01  5.437021630000e-02 -1.347368090822e-04 -1.250535688733e-04  6.113977885152e-05
H -7.051728714000e-01  3.560254850000e-01 -1.642189453000e-01  2.229967840099e-03  3.366676425237e-04 -1.895477698615e-04
3
step 945
H  7.338500703000e-01  3.898401400000e-01 -1.942020290000e-01 -8.397467372475e-05  1.633502821375e-03 -7.834777553779e-04
O -1.719907080000e-02 -1.143652668000e-01  5.466468370000e-02 -1.074662471817e-04 -1.515562984802e-04  7.359273346348e-05
H -6.965646674000e-01  3.582571808000e-01 -1.654008544000e-01  1.684290741906e-03  6.969385835928e-04 -3.569882977994e-04
3
step 946
H  7.337113236000e-01  3.971009166000e-01 -1.976866552000e-01  1.177694057598e-05  1.676405831318e-03 -8.049504242137e-04
O -1.760566940000e-02 -1.150870292000e-01  5.501420900000e-02 -7.729742897422e-05 -1.781636863649e-04  8.607205377016e-05
H -6.904340388000e-01  3.621242308000e-01 -1.673428660000e-01  1.109449555943e-03  1.076547797260e-03 -5.334444808874e-04
3
step 947
H  7.339531276000e-01  4.045099736000e-01 -2.012459610000e-01  8.958066585391e-05  1.701149574150e-03 -8.175464657435e-04
O -1.787548250000e-02 -1.159243354000e-01  5.541788000000e-02 -4.571044447755e-05 -2.038269373711e-04  9.808890022725e-05
H -6.868561349000e-01  3.676777976000e-01 -1.700689017000e-01  5.300396403019e-04  1.459329451262e-03 -7.114038605443e-04
3
step 948
H  7.344952229000e-01  4.119872768000e-01 -2.048408122000e-01  1.489184674031e-04  1.707672427828e-03 -8.212310167299e-04
O -1.800567070000e-02 -1.168706708000e-01  5.587256190000e-02 -1.421413548130e-05 -2.274734367107e-04  1.091431017098e-04
H -6.857957865000e-01  3.748944799000e-01 -1.735681941000e-01 -2.946802462379e-05  1.828307283620e-03 -8.829609336973e-04
3
step 949
H  7.352562781000e-01  4.194534138000e-01 -2.084323607000e-01  1.897778571726e-04  1.696288678017e-03 -8.161543771743e-04
O -1.799986700000e-02 -1.179149020000e-01  5.637296560000e-02  1.581920657144e-05 -2.481204131690e-04  1.187761017399e-04
H -6.871140027000e-01  3.836768851000e-01 -1.777954854000e-01 -5.472729266627e-04  2.167553352129e-03 -1.040684190116e-03
3
step 950
H  7.361559244000e-01  4.268311005000e-01 -2.119827874000e-01  2.125709591285e-04  1.667623746603e-03 -8.026201639586e-04
O -1.786724060000e-02 -1.190419143000e-01  5.691194370000e-02  4.328223621506e-05 -2.649720460423e-04  1.266163259489e-04
H -6.905848432000e-01  3.938622300000e-01 -1.826749769000e-01 -1.006199625825e-03  2.463794636736e-03 -1.178368160944e-03
3
step 951
H  7.371164366000e-01  4.340463973000e-01 -2.154559012000e-01  2.180581502164e-04  1.622549168815e-03 -7.810533502115e-04
O -1.762111440000e-02 -1.202336101000e-01  5.748095530000e-02  6.740144393802e-05 -2.774799124245e-04  1.324075178852e-04
H -6.959190192000e-01  4.052369731000e-01 -1.881071083000e-01 -1.394716664070e-03  2.707443696855e-03 -1.291518592275e-03
3
step 952
H  7.380641000000e-01  4.410296471000e-01 -2.188176018000e-01  2.072787818469e-04  1.562123188124e-03 -7.519711067143e-04
O -1.727742640000e-02 -1.214700758000e-01  5.807061080000e-02  8.774413614407e-05 -2.853600280028e-04  1.360169165853e-04
H -7.027896811000e-01  4.175544337000e-01 -1.939767527000e-01 -1.706982545290e-03  2.892936132150e-03 -1.377515416051e-03
3
step 953
H  7.389302846000e-01  4.477161703000e-01 -2.220362236000e-01  1.814898504009e-04  1.487539556157e-03 -7.159576703847e-04
O -1.685328610000e-02 -1.227307287000e-01  5.867120740000e-02  1.041771953294e-04 -2.885722865694e-04  1.374258585382e-04
H -7.108564224000e-01  4.305523776000e-01 -2.001614220000e-01 -1.942136581310e-03  3.018459369672e-03 -1.435491124123e-03
3
step 954
H  7.396522750000e-01  4.540467562000e-01 -2.250827791000e-01  1.421144040266e-04  1.400085890615e-03 -6.736438294985e-04
O -1.636579620000e-02 -1.239953041000e-01  5.927319220000e-02  1.167987020612e-04 -2.872756365127e-04  1.367090480692e-04
H -7.197848620000e-01  4.439682625000e-01 -2.065383982000e-01 -2.103164604778e-03  3.085275918464e-03 -1.466017520209e-03
3
step 955
H  7.401738943000e-01  4.599679930000e-01 -2.279311225000e-01  9.069602433321e-05  1.301109982229e-03 -6.256903674236e-04
O -1.583120810000e-02 -1.252446103000e-01  5.986751620000e-02  1.258627826916e-04 -2.817734341659e-04  1.340091241354e-04
H -7.292607217000e-01  4.575509023000e-01 -2.129901969000e-01 -2.195657921109e-03  3.096875041445e-03 -1.470709992211e-03
3
step 956
H  7.404459347000e-01  4.654324640000e-01 -2.305580485000e-01  2.886173706275e-05  1.191995175188e-03 -5.727758625430e-04
O -1.526440060000e-02 -1.264610372000e-01  6.044587450000e-02  1.317118575670e-04 -2.724603741620e-04  1.295118579226e-04
H -7.389985486000e-01  4.710682883000e-01 -2.194082358000e-01 -2.226693013289e-03  3.058142702269e-03 -1.451839971243e-03
3
step 957
H  7.404264566000e-01  4.703988627000e-01 -2.329433495000e-01 -4.170657969593e-05  1.074143765170e-03 -5.155884558325e-04
O -1.467862860000e-02 -1.276288470000e-01  6.100084400000e-02  1.347231462768e-04 -2.597774647988e-04  1.234251535386e-04
H -7.487459892000e-01  4.843119905000e-01 -2.256949074000e-01 -2.203946549541e-03  2.974663921187e-03 -1.412009456086e-03
3
step 958
H  7.400809702000e-01  4.748320437000e-01 -2.350698419000e-01 -1.192951237881e-04  9.489654940567e-04 -4.548201050768e-04
O -1.408546990000e-02 -1.287342888000e-01  6.152593900000e-02  1.352706458350e-04 -2.441776081915e-04  1.159627477238e-04
H -7.582847671000e-01  4.970988734000e-01 -2.317643989000e-01 -2.135065925220e-03  2.852197312410e-03 -1.353905484943e-03
3
step 959
H  7.393825330000e-01  4.787030368000e-01 -2.369233734000e-01 -2.021738933326e-04  8.178713927623e-04 -3.911635222805e-04
O -1.349490690000e-02 -1.297655878000e-01  6.201560680000e-02  1.337003877011e-04 -2.261018080668e-04  1.073329011264e-04
H -7.674294494000e-01  5.092708991000e-01 -2.375426162000e-01 -2.027265284418e-03  2.696315010457e-03 -1.280130870239e-03
3
step 960
H  7.383117939000e-01  4.819890441000e-01 -2.384928220000e-01 -2.886067475564e-04  6.822713494422e-04 -3.253109532033e-04
O -1.291548930000e-02 -1.307128526000e-01  6.246518410000e-02  1.303164321466e-04 -2.059647253120e-04  9.773142748267e-05
H -7.760248892000e-01  5.206936926000e-01 -2.429665233000e-01 -1.887099546583e-03  2.512181286078e-03 -1.193099549485e-03
3
step 961
H  7.368570032000e-01  4.846734331000e-01 -2.397700931000e-01 -3.768565629152e-04  5.435745483139e-04 -2.579543282037e-04
O -1.235453840000e-02 -1.315679368000e-01  6.287083160000e-02  1.253749670578e-04 -1.841475197435e-04  8.733831105571e-05
H -7.839430142000e-01  5.312544073000e-01 -2.479831500000e-01 -1.720369388534e-03  2.304439052182e-03 -1.094982793407e-03
3
step 962
H  7.350140107000e-01  4.867457373000e-01 -2.407501197000e-01 -4.651864809847e-04  4.031918237361e-04 -1.897864461359e-04
O -1.181836240000e-02 -1.323242842000e-01  6.322946110000e-02  1.190839925339e-04 -1.609960216951e-04  7.631696155794e-05
H -7.910794375000e-01  5.408592973000e-01 -2.525484605000e-01 -1.532115836942e-03  2.077174634910e-03 -9.876924348470e-04
3
step 963
H  7.327862656000e-01  4.882016700000e-01 -2.414308697000e-01 -5.518590582484e-04  2.625387685088e-04 -1.215024553628e-04
O -1.131246240000e-02 -1.329767751000e-01  6.353866340000e-02  1.116066348837e-04 -1.368223135945e-04  6.481504150714e-05
H -7.973501999000e-01  5.494312745000e-01 -2.566262145000e-01 -1.326671262722e-03  1.833935125268e-03 -8.728887812071e-04
3
step 964
H  7.301848217000e-01  4.890431523000e-01 -2.418133592000e-01 -6.351323578688e-04  1.230397335232e-04 -5.380182844082e-05
O -1.084171900000e-02 -1.335215841000e-01  6.379664230000e-02  1.030662387509e-04 -1.119082633681e-04  5.296619864647e-05
H -8.026888260000e-01  5.569076327000e-01 -2.601869051000e-01 -1.107741773834e-03  1.577777700524e-03 -7.520034147466e-04
3
step 965
H  7.272283716000e-01  4.892783618000e-01 -2.419016769000e-01 -7.132570333704e-04 -1.386961703264e-05  1.261040827366e-05
O -1.041055390000e-02 -1.339560580000e-01  6.400215820000e-02  9.355225917146e-05 -8.650990805806e-05  4.089216861776e-05
H -8.070437879000e-01  5.632380365000e-01 -2.632068197000e-01 -8.785019544227e-04  1.311335113344e-03 -6.262696036356e-04
3
step 966
H  7.239432770000e-01  4.889217826000e-01 -2.417030084000e-01 -7.844750898909e-04 -1.467421913988e-04  7.702360605862e-05
O -1.002306520000e-02 -1.342786120000e-01  6.415448000000e-02  8.312619476815e-05 -6.086186029402e-05  2.870479078526e-05
H -8.103763902000e-01  5.683828182000e-01 -2.656672433000e-01 -6.416899833639e-04  1.036886167908e-03 -4.967551356554e-04
3
step 967
H  7.203636144000e-01  4.879942554000e-01 -2.412276614000e-01 -8.470217537323e-04 -2.741221808629e-04  1.387228148539e-04
O -9.683136100000e-03 -1.344886459000e-01  6.425334700000e-02  7.182759408309e-05 -3.518165077060e-05  1.650803777247e-05
H -8.126590662000e-01  5.723115837000e-01 -2.675538072000e-01 -3.997007598323e-04  7.564280427391e-04 -3.643960203953e-04
3
step 968
H  7.165311887000e-01  4.865230038000e-01 -2.404890777000e-01 -8.991318078067e-04 -3.945525836743e-04  1.969924537972e-04
O -9.394518700000e-03 -1.345864784000e-01  6.429893800000e-02  5.967989735253e-05 -9.673599908878e-06  4.399779879313e-06
H -8.138740777000e-01  5.750021423000e-01 -2.688559872000e-01 -1.546731002502e-04  4.717460263119e-04 -2.300291126853e-04
3
step 969
H  7.124955231000e-01  4.845416184000e-01 -2.395038267000e-01 -9.390485462820e-04 -5.065865549083e-04  2.511218604536e-04
O -9.160891400000e-03 -1.345732973000e-01  6.429184850000e-02  4.669602230415e-05  1.546778129810e-05 -7.526651626014e-06
H -8.140125741000e-01  5.764397224000e-01 -2.695667379000e-01  9.143044240552e-05  1.844792484532e-04 -9.442289390517e-05
3
step 970
H  7.083137955000e-01  4.820899839000e-01 -2.382915693000e-01 -9.650459486433e-04 -6.088079943809e-04  3.004153699337e-04
O -8.985892800000e-03 -1.344511235000e-01  6.423307410000e-02  3.288469960315e-05  4.005488411094e-05 -1.918112062450e-05
H -8.130739914000e-01  5.766164768000e-01 -2.696822598000e-01  3.367444906617e-04 -1.038125872087e-04  4.169126674909e-05
3
step 971
H  7.040506328000e-01  4.792140827000e-01 -2.368749624000e-01 -9.754603294967e-04 -6.998615097428e-04  3.442069787549e-04
O -8.873125100000e-03 -1.342227864000e-01  6.412399900000e-02  1.825732939564e-05  6.390480795001e-05 -3.047574908544e-05
H -8.110658022000e-01  5.755312828000e-01 -2.692019074000e-01  5.794238618506e-04 -3.915840569399e-04  1.775885457948e-04
3
step 972
H  6.997777713000e-01  4.759656602000e-01 -2.352794949000e-01 -9.687280495581e-04 -7.784873117144e-04  3.818774724865e-04
O -8.826127300000e-03 -1.338919075000e-01  6.396638790000e-02  2.834883562227e-06  8.683756398109e-05 -4.132409885219e-05
H -8.080035893000e-01  5.731898167000e-01 -2.681282242000e-01  8.175713504249e-04 -6.772403287551e-04  3.125207526497e-04
3
step 973
H  6.955735212000e-01  4.724017231000e-01 -2.335332423000e-01 -9.434380733435e-04 -8.435668695223e-04  4.128768512172e-04
O -8.848317700000e-03 -1.334628913000e-01  6.376238150000e-02 -1.334408583928e-05  1.086747586591e-04 -5.164064597394e-05
H -8.039114274000e-01  5.696049118000e-01 -2.664671117000e-01  1.049163384743e-03 -9.590711019076e-04  4.456853106292e-04
3
step 974
H  6.915219664000e-01  4.685838047000e-01 -2.316665066000e-01 -8.983969966259e-04 -8.941782934856e-04  4.367515226068e-04
O -8.942898200000e-03 -1.329409202000e-01  6.351449280000e-02 -3.021451478345e-05  1.292388852184e-04 -6.134055672520e-05
H -7.988226070000e-01  5.647972109000e-01 -2.642281367000e-01  1.271972356145e-03 -1.235182288292e-03  5.761931363272e-04
3
step 975
H  6.877118602000e-01  4.645769790000e-01 -2.297113324000e-01 -8.327036684826e-04 -9.296567045949e-04  4.531739815761e-04
O -9.112717800000e-03 -1.323319522000e-01  6.322560470000e-02 -4.767509098558e-05  1.483526563030e-04 -7.033950019369e-05
H -7.927806961000e-01  5.587961218000e-01 -2.614249809000e-01  1.483487375599e-03 -1.503425143210e-03  7.030353031012e-04
3
step 976
H  6.842351722000e-01  4.604485973000e-01 -2.277008876000e-01 -7.458321463278e-04 -9.496580780725e-04  4.619742269890e-04
O -9.360091700000e-03 -1.316427210000e-01  6.289896830000e-02 -6.557780910072e-05  1.658384645847e-04 -7.855350200737e-05
H -7.858409576000e-01  5.516410907000e-01 -2.580760400000e-01  1.680830783854e-03 -1.761322150711e-03  8.250481778358e-04
3
step 977
H  6.811852583000e-01  4.562667442000e-01 -2.256687045000e-01 -6.377183077679e-04 -9.542212310960e-04  4.631703235519e-04
O -9.686573800000e-03 -1.308807388000e-01  6.253820150000e-02 -8.371702768045e-05  1.815175142678e-04 -8.589864264654e-05
H -7.780721408000e-01  5.433832055000e-01 -2.542051782000e-01  1.860671402454e-03 -2.005990797112e-03  9.408775795044e-04
3
step 978
H  6.786546491000e-01  4.520984315000e-01 -2.236477929000e-01 -5.088443643553e-04 -9.438219072117e-04  4.569951331903e-04
O -1.009267980000e-02 -1.300543038000e-01  6.214728950000e-02 -1.018186038371e-04  1.952085092039e-04 -9.229053634658e-05
H -7.695586593000e-01  5.340871365000e-01 -2.498426413000e-01  2.019137419073e-03 -2.234068706685e-03  1.048943623386e-03
3
step 979
H  6.767324808000e-01  4.480075805000e-01 -2.216696474000e-01 -3.603108278674e-04 -9.194097879565e-04  4.439147180114e-04
O -1.057756450000e-02 -1.291725149000e-01  6.173058870000e-02 -1.195302346599e-04  2.067257422015e-04 -9.764340317902e-05
H -7.604031437000e-01  5.238333952000e-01 -2.450261190000e-01  2.151736769329e-03 -2.441648170813e-03  1.147409898618e-03
3
step 980
H  6.755016538000e-01  4.440528925000e-01 -2.197631995000e-01 -1.938888851559e-04 -8.824221510912e-04  4.246354071149e-04
O -1.113866080000e-02 -1.282452954000e-01  6.129283500000e-02 -1.364143766908e-04  2.158770197794e-04 -1.018690085729e-04
H -7.507293164000e-01  5.127208471000e-01 -2.398019269000e-01  2.253298993296e-03 -2.624232855774e-03  1.234163021982e-03
3
step 981
H  6.750358048000e-01  4.402857115000e-01 -2.179537627000e-01 -1.204275047790e-05 -8.347668206636e-04  4.000958201476e-04
O -1.177129460000e-02 -1.272834259000e-01  6.083915690000e-02 -1.519457684271e-04  2.224621674395e-04 -1.048758039613e-04
H -7.406850536000e-01  5.008693500000e-01 -2.342262483000e-01  2.317958715812e-03 -2.776735279530e-03  1.306811307737e-03
3
step 982
H  6.753962705000e-01  4.367480442000e-01 -2.162620550000e-01  1.820874027257e-04 -7.787691704988e-04  3.714412695410e-04
O -1.246830250000e-02 -1.262985813000e-01  6.037509150000e-02 -1.655159876374e-04  2.262735553359e-04 -1.065691050513e-04
H -7.304454042000e-01  4.884222891000e-01 -2.283663282000e-01  2.339208496708e-03 -2.893539361692e-03  1.362714095339e-03
3
step 983
H  6.766292088000e-01  4.334708855000e-01 -2.147033675000e-01  3.847486043079e-04 -7.170818463787e-04  3.399798420664e-04
O -1.321968610000e-02 -1.253033592000e-01  5.990659570000e-02 -1.764476626901e-04  2.271003539024e-04 -1.068531030773e-04
H -7.202151896000e-01  4.755486668000e-01 -2.223014575000e-01  2.310055982783e-03 -2.968656949260e-03  1.399055470995e-03
3
step 984
H  6.787631151000e-01  4.304730294000e-01 -2.132869712000e-01  5.916863873984e-04 -6.525607677406e-04  3.071218418431e-04
O -1.401235450000e-02 -1.243112794000e-01  5.944004500000e-02 -1.840209250979e-04  2.247390472190e-04 -1.056358975029e-04
H -7.102306471000e-01  4.624442696000e-01 -2.161235224000e-01  2.223327638967e-03 -2.996011421538e-03  1.412977961119e-03
3
step 985
H  6.818069174000e-01  4.277604795000e-01 -2.120158164000e-01  7.982975339052e-04 -5.881188638941e-04  2.743080937506e-04
O -1.483001000000e-02 -1.233367206000e-01  5.898220080000e-02 -1.875143202264e-04  2.190127730352e-04 -1.028385466590e-04
H -7.007593718000e-01  4.493312748000e-01 -2.099368193000e-01  2.072164581532e-03 -2.969882062714e-03  1.401791373497e-03
3
step 986
H  6.857488293000e-01  4.253265394000e-01 -2.108865656000e-01  9.998166593442e-04 -5.265695574208e-04  2.429330175830e-04
O -1.565324830000e-02 -1.223947501000e-01  5.854012910000e-02 -1.862620365762e-04  2.098013590011e-04 -9.840898195538e-05
H -6.920976217000e-01  4.364555294000e-01 -2.038567755000e-01  1.850748644902e-03 -2.885531481285e-03  1.363267208121e-03
3
step 987
H  6.905560781000e-01  4.231525930000e-01 -2.098899667000e-01  1.191522137691e-03 -4.704761624845e-04  2.142703442581e-04
O -1.645994530000e-02 -1.215007982000e-01  5.812104690000e-02 -1.797272159444e-04  1.970819865404e-04 -9.234079480940e-05
H -6.845639053000e-01  4.240806667000e-01 -1.980071883000e-01  1.555266704188e-03 -2.740006202915e-03  1.296014226630e-03
3
step 988
H  6.961755596000e-01  4.212095130000e-01 -2.090115361000e-01  1.368944650002e-03 -4.220225018585e-04  1.894090437053e-04
O -1.722599890000e-02 -1.206701319000e-01  5.773207650000e-02 -1.675866363058e-04  1.809770358100e-04 -8.469532385800e-05
H -6.784878482000e-01  4.124783789000e-01 -1.925156595000e-01  1.185051370887e-03 -2.533037880780e-03  1.199901875870e-03
3
step 989
H  7.025353911000e-01  4.194595733000e-01 -2.082324926000e-01  1.528060758352e-03 -3.829170524485e-04  1.692055256163e-04
O -1.792645660000e-02 -1.199171106000e-01  5.737989800000e-02 -1.498156095334e-04  1.618007787602e-04 -7.562336734479e-05
H -6.741937992000e-01  4.019146474000e-01 -1.875071289000e-01  7.437360827387e-04 -2.267891212292e-03  1.076458634770e-03
3
step 990
H  7.095472602000e-01  4.178586959000e-01 -2.075308583000e-01  1.665455437902e-03 -3.543385409079e-04  1.542560898541e-04
O -1.853700010000e-02 -1.192542513000e-01  5.707031420000e-02 -1.267554954950e-04  1.400917100225e-04 -6.538014409773e-05
H -6.719795884000e-01  3.926325957000e-01 -1.830958229000e-01  2.401607296906e-04 -1.951933489294e-03  9.291386424628e-04
3
step 991
H  7.171094004000e-01  4.163588400000e-01 -2.068826338000e-01  1.778438469013e-03 -3.369245160641e-04  1.448904447337e-04
O -1.903566420000e-02 -1.186912010000e-01  5.680777180000e-02 -9.914199672182e-05  1.166147455739e-04 -5.432627172929e-05
H -6.720922091000e-01  3.848337360000e-01 -1.793764549000e-01 -3.113000136700e-04 -1.596676413841e-03  7.633395710052e-04
3
step 992
H  7.251099574000e-01  4.149103486000e-01 -2.062629561000e-01  1.865111562803e-03 -3.307986745305e-04  1.411843459171e-04
O -1.940456840000e-02 -1.182337831000e-01  5.659491780000e-02 -6.807660776262e-05  9.232214958249e-05 -4.290935453203e-05
H -6.747037017000e-01  3.786604556000e-01 -1.764160176000e-01 -8.912605691665e-04 -1.217122294785e-03  5.860939757961e-04
3
step 993
H  7.334305534000e-01  4.134640985000e-01 -2.056471628000e-01  1.924380474376e-03 -3.356304074994e-04  1.429881516310e-04
O -1.963138660000e-02 -1.178833116000e-01  5.643228210000e-02 -3.493451809279e-05  6.827220666055e-05 -3.162585195545e-05
H -6.798914209000e-01  3.741829848000e-01 -1.742476843000e-01 -1.476796966286e-03 -8.304109272328e-04  4.054331683369e-04
3
step 994
H  7.419497588000e-01  4.119733258000e-01 -2.050117004000e-01  1.955920185291e-03 -3.507139663918e-04  1.499651918834e-04
O -1.971027220000e-02 -1.176363490000e-01  5.631816740000e-02 -1.221150372307e-06  4.551876295140e-05 -2.096926599337e-05
H -6.876268050000e-01  3.713937247000e-01 -1.728681672000e-01 -2.043686500068e-03 -4.539877527102e-04  2.295273051320e-04
3
step 995
H  7.505463514000e-01  4.103950830000e-01 -2.043348526000e-01  1.960105451355e-03 -3.750540919418e-04  1.616335293836e-04
O -1.964207260000e-02 -1.174849876000e-01  5.624878490000e-02  3.159271199588e-05  2.499649330374e-05 -1.137643616527e-05
H -6.977752413000e-01  3.702102447000e-01 -1.722391447000e-01 -2.568952656022e-03 -1.036990108535e-04  6.579219035643e-05
3
step 996
H  7.591021811000e-01  4.086913155000e-01 -2.035972833000e-01  1.937910445676e-03 -4.074538282331e-04  1.774090140635e-04
O -1.943381180000e-02 -1.174176106000e-01  5.621861480000e-02  6.222098260284e-05  7.429069300923e-06 -3.184631267960e-06
H -7.101071062000e-01  3.704862790000e-01 -1.722924352000e-01 -3.033143928022e-03  2.077531495137e-04 -7.983407118443e-05
3
step 997
H  7.675045505000e-01  4.068295503000e-01 -2.027823881000e-01  1.890799186535e-03 -4.465935420757e-04  1.966441962469e-04
O -1.909759140000e-02 -1.174199775000e-01  5.622091700000e-02  8.966640921413e-05 -6.721163196269e-06  3.391781155934e-06
H -7.243175712000e-01  3.720282437000e-01 -1.729377539000e-01 -3.421879292322e-03  4.716916859203e-04 -2.033021421134e-04
3
step 998
H  7.756481206000e-01  4.047832804000e-01 -2.018764962000e-01  1.820616902310e-03 -4.910952510955e-04  2.186601227261e-04
O -1.864916210000e-02 -1.174764259000e-01  5.624829550000e-02  1.132649767447e-04 -1.725771393927e-05  8.263172371621e-06
H -7.400511679000e-01  3.746139421000e-01 -1.740714845000e-01 -3.726450170921e-03  6.836089787731e-04 -3.025163839471e-04
3
step 999
H  7.834363412000e-01  4.025320911000e-01 -2.008689447000e-01  1.729485469189e-03 -5.395750671490e-04  2.427724601927e-04
O -1.810643620000e-02 -1.175709957000e-01  5.629322610000e-02  1.326749687865e-04 -2.421732485844e-05  1.144917494825e-05
H -7.569268611000e-01  3.780103452000e-01 -1.755850037000e-01 -3.943549049582e-03  8.427080234721e-04 -3.771169927161e-04
3
step 1000
H  7.907824415000e-01  4.000615857000e-01 -1.997520514000e-01  1.619713563030e-03 -5.906803679305e-04  2.683101496058e-04
O -1.748815470000e-02 -1.176883460000e-01  5.634848460000e-02  1.478269194134e-04 -2.781619190794e-05  1.305334097467e-05
H -7.745602391000e-01  3.819882820000e-01 -1.773715467000e-01 -4.074388082892e-03  9.510845544923e-04 -4.280946292314e-04
3
step 1001
H  7.976100740000e-01  3.973631860000e-01 -1.985210256000e-01  1.493723696593e-03 -6.431133926233e-04  2.946274234279e-04
O -1.681283760000e-02 -1.178144087000e-01  5.640745280000e-02  1.588550934573e-04 -2.839075195734e-05  1.323529078029e-05
H -7.925808739000e-01  3.863330627000e-01 -1.793311593000e-01 -4.123533404186e-03  1.012799291073e-03 -4.573548457390e-04
3
step 1002
H  8.038536667000e-01  3.944338515000e-01 -1.971738360000e-01  1.353994158333e-03 -6.956449458441e-04  3.211109227162e-04
O -1.609805110000e-02 -1.179367868000e-01  5.646430350000e-02  1.660275954767e-04 -2.634384521312e-05  1.218554484991e-05
H -8.106443111000e-01  3.908510507000e-01 -1.813737515000e-01 -4.097729054660e-03  1.033024507836e-03 -4.673188111171e-04
3
step 1003
H  8.094585588000e-01  3.912757605000e-01 -1.957110593000e-01  1.203017022928e-03 -7.471192337921e-04  3.471824351691e-04
O -1.535996910000e-02 -1.180449375000e-01  5.651408560000e-02  1.696852139608e-04 -2.210182068342e-05  1.010552100126e-05
H -8.284391381000e-01  3.953728175000e-01 -1.834205564000e-01 -4.004880523673e-03  1.017363015475e-03 -4.606059489093e-04
3
step 1004
H  8.143809860000e-01  3.878959866000e-01 -1.941357241000e-01  1.043269911464e-03 -7.964524380872e-04  3.722985020180e-04
O -1.461317560000e-02 -1.181301946000e-01  5.655273450000e-02  1.701935809406e-04 -1.608380972174e-05  7.193323056112e-06
H -8.456900796000e-01  3.997537554000e-01 -1.854044060000e-01 -3.853269637965e-03  9.713643493405e-04 -4.398090244188e-04
3
step 1005
H  8.185879687000e-01  3.843061924000e-01 -1.924531626000e-01  8.771989414937e-04 -8.426273768091e-04  3.959480685180e-04
O -1.387064510000e-02 -1.181856831000e-01  5.657703270000e-02  1.679093692307e-04 -8.682116312937e-06  3.634639921724e-06
H -8.621581954000e-01  4.038729987000e-01 -1.872692218000e-01 -3.651004986854e-03  9.002181676786e-04 -4.073508703780e-04
3
step 1006
H  8.220571478000e-01  3.805223524000e-01 -1.906708756000e-01  7.072097449686e-04 -8.846861999926e-04  4.176490465346e-04
O -1.314384020000e-02 -1.182061698000e-01  5.658454040000e-02  1.631589960053e-04 -2.516945646652e-07 -4.022322596350e-07
H -8.776391664000e-01  4.076313531000e-01 -1.889690378000e-01 -3.405676855258e-03  8.085877884687e-04 -3.654061537892e-04
3
step 1007
H  8.247765950000e-01  3.765645113000e-01 -1.887984139000e-01  5.356640445355e-04 -9.217226920148e-04  4.369446531491e-04
O -1.244287900000e-02 -1.181878857000e-01  5.657351290000e-02  1.562272592204e-04  8.893544683967e-06 -4.768195667099e-06
H -8.919604734000e-01  4.109487605000e-01 -1.904668052000e-01 -3.124172750686e-03  7.005455916448e-04 -3.158713534062e-04
3
step 1008
H  8.267446180000e-01  3.724565737000e-01 -1.868472756000e-01  3.648790958722e-04 -9.528756390327e-04  4.534001926546e-04
O -1.177673220000e-02 -1.181283445000e-01  5.654281510000e-02  1.473531825486e-04  1.847997964263e-05 -9.333081110506e-06
H -9.049780681000e-01  4.137616630000e-01 -1.917331537000e-01 -2.812609486890e-03  5.795763193777e-04 -2.603670361072e-04
3
step 1009
H  8.279695662000e-01  3.682261205000e-01 -1.848308154000e-01  1.971272717238e-04 -9.773240796837e-04  4.666006979049e-04
O -1.115342590000e-02 -1.180261717000e-01  5.649184130000e-02  1.367309250136e-04  2.827090872148e-05 -1.398414416188e-05
H -9.165729582000e-01  4.160204967000e-01 -1.927452160000e-01 -2.476345155389e-03  4.486217715958e-04 -2.002596241341e-04
3
step 1010
H  8.284696324000e-01  3.639042403000e-01 -1.827641625000e-01  3.463530311161e-05 -9.942848915824e-04  4.761497738443e-04
O -1.058023200000e-02 -1.178809524000e-01  5.642044310000e-02  1.245138354932e-04  3.806201607045e-05 -1.862390762980e-05
H -9.266479828000e-01  4.176874467000e-01 -1.934855787000e-01 -2.120042502784e-03  3.101480275360e-04 -1.366935979915e-04
3
step 1011
H  8.282726516000e-01  3.595253670000e-01 -1.806641406000e-01 -1.204211647619e-04 -1.003014226624e-03  4.816702968750e-04
O -1.006383460000e-02 -1.176931000000e-01  5.632886780000e-02  1.108206190371e-04  4.767654000174e-05 -2.316789432905e-05
H -9.351249521000e-01  4.187345292000e-01 -1.939413895000e-01 -1.747760813010e-03  1.662217042192e-04 -7.062756186433e-05
3
step 1012
H  8.274158551000e-01  3.551270984000e-01 -1.785491789000e-01 -2.659294480467e-04 -1.002813421324e-03  4.828073585995e-04
O -9.610466800000e-03 -1.174637462000e-01  5.621770630000e-02  9.574263222893e-05  5.696079338147e-05 -2.754249241012e-05
H -9.419422270000e-01  4.191420137000e-01 -1.941036239000e-01 -1.363061196419e-03  1.858719769666e-05 -2.870373030655e-06
3
step 1013
H  8.259455655000e-01  3.507499823000e-01 -1.764392068000e-01 -3.998571758704e-04 -9.930381251641e-04  4.792328368500e-04
O -9.226013300000e-03 -1.171946494000e-01  5.608785000000e-02  7.935176364041e-05  6.578010912703e-05 -3.168309495045e-05
H -9.470527803000e-01  4.188971813000e-01 -1.939665075000e-01 -9.691142649325e-04 -1.312600387858e-04  6.588483139927e-05
3
step 1014
H  8.239167989000e-01  3.464372551000e-01 -1.743555249000e-01 -5.202796068074e-04 -9.731131792898e-04  4.706527778994e-04
O -8.916078200000e-03 -1.168881199000e-01  5.594045500000e-02  6.170900908122e-05  7.401541650644e-05 -3.553252752048e-05
H -9.504227183000e-01  4.179933880000e-01 -1.935270812000e-01 -5.688098138836e-04 -2.820038140228e-04  1.350282670273e-04
3
step 1015
H  8.213927209000e-01  3.422344975000e-01 -1.723206350000e-01 -6.254148303722e-04 -9.425515954236e-04  4.568168493498e-04
O -8.686012300000e-03 -1.165469579000e-01  5.577691320000e-02  4.287370964862e-05  8.156020597515e-05 -3.903967230395e-05
H -9.520303014000e-01  4.164294322000e-01 -1.927849068000e-01 -1.648685288190e-04 -4.324397898863e-04  2.040022454717e-04
3
step 1016
H  8.184439407000e-01  3.381892076000e-01 -1.703580280000e-01 -7.136713560015e-04 -9.009800713477e-04  4.375310978737e-04
O -8.540900400000e-03 -1.161744057000e-01  5.559882800000e-02  2.291339315264e-05  8.831821166440e-05 -4.215846247154e-05
H -9.518654440000e-01  4.142092090000e-01 -1.917419055000e-01  2.400496171199e-04 -5.814129085110e-04  2.722720751972e-04
3
step 1017
H  8.151475505000e-01  3.343502326000e-01 -1.684919031000e-01 -7.837040121668e-04 -8.481678203838e-04  4.126722702475e-04
O -8.485502600000e-03 -1.157741060000e-01  5.540799440000e-02  1.914196061987e-06  9.420136813129e-05 -4.484699083025e-05
H -9.499296836000e-01  4.113416245000e-01 -1.904023179000e-01  6.432357864933e-04 -7.277557976796e-04  3.392973965927e-04
3
step 1018
H  8.115859310000e-01  3.307670903000e-01 -1.667468299000e-01 -8.344733331816e-04 -7.840557574121e-04  3.822024680707e-04
O -8.524149800000e-03 -1.153500716000e-01  5.520638250000e-02 -2.000824373406e-05  9.912765740414e-05 -4.706657276243e-05
H -9.462366388000e-01  4.078407890000e-01 -1.887727937000e-01  1.041818536649e-03 -8.702253706522e-04  4.045026942638e-04
3
step 1019
H  8.078452704000e-01  3.274891449000e-01 -1.651473391000e-01 -8.653132744241e-04 -7.087897531072e-04  3.461857268871e-04
O -8.660590000000e-03 -1.149066631000e-01  5.499612590000e-02 -4.269708052065e-05  1.030191342980e-04 -4.878090058549e-05
H -9.408129744000e-01  4.037264867000e-01 -1.868626098000e-01  1.432645795760e-03 -1.007437579299e-03  4.672469545427e-04
3
step 1020
H  8.040137778000e-01  3.245646377000e-01 -1.637174400000e-01 -8.759939679927e-04 -6.227496371160e-04  3.048025703415e-04
O -8.897781900000e-03 -1.144485754000e-01  5.477951230000e-02 -6.594262748876e-05  1.057994854854e-04 -4.995498764418e-05
H -9.336998920000e-01  3.990249394000e-01 -1.846840254000e-01  1.812162674643e-03 -1.137799465757e-03  5.267920751079e-04
3
step 1021
H  8.001796530000e-01  3.220396091000e-01 -1.624800834000e-01 -8.667801267422e-04 -5.265765282398e-04  2.583637049815e-04
O -9.237638500000e-03 -1.139808367000e-01  5.455898150000e-02 -8.947041263669e-05  1.073910766113e-04 -5.055378328884e-05
H -9.249551646000e-01  3.937698709000e-01 -1.822527761000e-01  2.176280113682e-03 -1.259434695797e-03  5.822682668661e-04
3
step 1022
H  7.964287886000e-01  3.199566902000e-01 -1.614565599000e-01 -8.384765763033e-04 -4.211917859202e-04  2.073195462826e-04
O -9.680716400000e-03 -1.135088213000e-01  5.433712800000e-02 -1.129299294679e-04  1.077112223339e-04 -5.054044045546e-05
H -9.146557761000e-01  3.880039223000e-01 -1.795887326000e-01  2.520241052235e-03 -1.370104822849e-03  6.326372800245e-04
3
step 1023
H  7.928423415000e-01  3.183538587000e-01 -1.606658788000e-01 -7.924466077631e-04 -3.078005162179e-04  1.522621110536e-04
O -1.022586170000e-02 -1.130382811000e-01  5.411671400000e-02 -1.358853258052e-04  1.066673593177e-04 -4.987395244373e-05
H -9.029011273000e-01  3.817804055000e-01 -1.767167159000e-01  2.838490821686e-03 -1.467129774959e-03  6.766549810775e-04
3
step 1024
H  7.894942745000e-01  3.172632002000e-01 -1.601241499000e-01 -7.306058981971e-04 -1.878828594320e-04  9.392077552188e-05
O -1.086981700000e-02 -1.125754003000e-01  5.390069280000e-02 -1.578084375425e-04  1.041515015759e-04 -4.850646972305e-05
H -8.898168098000e-01  3.751654143000e-01 -1.736674838000e-01  3.124560323656e-03 -1.547310083299e-03  7.128344051798e-04
3
step 1025
H  7.864489810000e-01  3.167097400000e-01 -1.598440002000e-01 -6.553836980622e-04 -6.316740956685e-05  3.314914276744e-05
O -1.160680630000e-02 -1.121268757000e-01  5.369224530000e-02 -1.780763020053e-04  1.000344535475e-04 -4.638047960772e-05
H -8.755588340000e-01  3.682402585000e-01 -1.704788695000e-01  3.370987764849e-03 -1.606863577989e-03  7.394154227987e-04
3
step 1026
H  7.837591658000e-01  3.167104370000e-01 -1.598340696000e-01 -5.696472309502e-04  6.441460109083e-05 -2.909767529078e-05
O -1.242812090000e-02 -1.117000223000e-01  5.349482810000e-02 -1.959752444506e-04  9.416065854785e-05 -4.342633790133e-05
H -8.603180879000e-01  3.611041287000e-01 -1.671970332000e-01  3.569309446426e-03 -1.641392618392e-03  7.543485811270e-04
3
step 1027
H  7.814641319000e-01  3.172734170000e-01 -1.600986271000e-01 -4.765934927623e-04  1.927923364605e-04 -9.179433744572e-05
O -1.332173960000e-02 -1.113028980000e-01  5.331223160000e-02 -2.107141340503e-04  8.634548814830e-05 -3.956108957128e-05
H -8.443246456000e-01  3.538768173000e-01 -1.638777423000e-01  3.710162356179e-03 -1.645904969000e-03  7.553040038759e-04
3
step 1028
H  7.795886081000e-01  3.183975175000e-01 -1.606373402000e-01 -3.796143377909e-04  3.198324150731e-04 -1.538835647114e-04
O -1.427203070000e-02 -1.109444332000e-01  5.314863830000e-02 -2.214498856620e-04  7.637741341523e-05 -3.468949265930e-05
H -8.278513288000e-01  3.467012010000e-01 -1.605875453000e-01  3.783554672880e-03 -1.614920450684e-03  7.397209457998e-04
3
step 1029
H  7.781422160000e-01  3.200721953000e-01 -1.614452260000e-01 -2.821448394066e-04  4.434245208715e-04 -2.143186646046e-04
O -1.525959550000e-02 -1.106345372000e-01  5.300867200000e-02 -2.273288276403e-04  6.402774577244e-05 -2.870859388131e-05
H -8.112156476000e-01  3.397450279000e-01 -1.574046181000e-01  3.779369566802e-03 -1.542703697484e-03  7.049168437327e-04
3
step 1030
H  7.771196249000e-01  3.222778213000e-01 -1.625127925000e-01 -1.875080762009e-04  5.615684356006e-04 -2.721067547948e-04
O -1.626133190000e-02 -1.103841414000e-01  5.289741620000e-02 -2.275472176883e-04  4.907119291824e-05 -2.151701238721e-05
H -7.947789537000e-01  3.332013634000e-01 -1.544189836000e-01  3.688169170569e-03 -1.423669213765e-03  6.482760726560e-04
3
step 1031
H  7.765013769000e-01  3.249863488000e-01 -1.638263683000e-01 -9.877016180441e-05  6.724545803370e-04 -3.263488693109e-04
O -1.725080780000e-02 -1.102051267000e-01  5.282038170000e-02 -2.214328037270e-04  3.131957016359e-05 -1.303015214503e-05
H -7.789413457000e-01  3.272868331000e-01 -1.517317065000e-01  3.502344147211e-03 -1.252998719094e-03  5.675368280435e-04
3
step 1032
H  7.762553104000e-01  3.281623133000e-01 -1.653685948000e-01 -1.861782359033e-05  7.745310267727e-04 -3.762732859137e-04
O -1.819903830000e-02 -1.101100712000e-01  5.278339240000e-02 -2.085449934221e-04  1.066954025800e-05 -3.201964609573e-06
H -7.641307629000e-01  3.222366660000e-01 -1.494526022000e-01  3.217582242912e-03 -1.027475575861e-03  4.611795170455e-04
3
step 1033
H  7.763384567000e-01  3.317640878000e-01 -1.671190474000e-01  5.073261108171e-05  8.665515981520e-04 -4.212595651368e-04
O -1.907573600000e-02 -1.101117601000e-01  5.279236200000e-02 -1.887835486808e-04 -1.283896429000e-05  7.948009070593e-06
H -7.507850395000e-01  3.182956357000e-01 -1.476960329000e-01  2.834504546223e-03 -7.464728994468e-04  3.288878975982e-04
3
step 1034
H  7.766992595000e-01  3.357453028000e-01 -1.690549383000e-01  1.075877542721e-04  9.476013710423e-04 -4.608512897438e-04
O -1.985103880000e-02 -1.102224220000e-01  5.285294360000e-02 -1.624861679765e-04 -3.896268703511e-05  2.030632510007e-05
H -7.393266796000e-01  3.157044571000e-01 -1.465745814000e-01  2.360162938854e-03 -4.129364345790e-04  1.720112734403e-04
3
step 1035
H  7.772799319000e-01  3.400563247000e-01 -1.711518487000e-01  1.507920361602e-04  1.017099843057e-03 -4.947577285832e-04
O -2.049761430000e-02 -1.104527134000e-01  5.297005790000e-02 -1.304867075444e-04 -6.720954757351e-05  3.364372352406e-05
H -7.301318082000e-01  3.146821260000e-01 -1.461908027000e-01  1.808948596807e-03 -3.410499519305e-05 -6.091641095299e-06
3
step 1036
H  7.780188052000e-01  3.446457045000e-01 -1.733844469000e-01  1.797073685368e-04  1.074783882916e-03 -5.228455401708e-04
O -2.099289740000e-02 -1.108105569000e-01  5.314735190000e-02 -9.410428861938e-05 -9.682708141077e-05  4.760910818332e-05
H -7.234969954000e-01  3.154060123000e-01 -1.466278879000e-01  1.202437238192e-03  3.783313688236e-04 -1.999711830681e-04
3
step 1037
H  7.788525088000e-01  3.494615060000e-01 -1.757271472000e-01  1.941622692527e-04  1.120672912922e-03 -5.451215947631e-04
O -2.132109880000e-02 -1.113000244000e-01  5.338667400000e-02 -5.504492889393e-05 -1.268397806970e-04  6.174657379677e-05
H -7.196095624000e-01  3.179928149000e-01 -1.479407035000e-01  5.678778907943e-04  8.088634672220e-04 -4.023774126579e-04
3
step 1038
H  7.797178736000e-01  3.544524499000e-01 -1.781546779000e-01  1.943825379936e-04  1.155023907177e-03 -5.617107637276e-04
O -2.147458260000e-02 -1.119205020000e-01  5.368768160000e-02 -1.522294784783e-05 -1.561372099510e-04  7.553654065072e-05
H -7.185276294000e-01  3.224841864000e-01 -1.501489981000e-01 -6.457263070218e-05  1.239606308337e-03 -6.049333114472e-04
3
step 1039
H  7.805535047000e-01  3.595688488000e-01 -1.806425461000e-01  1.809139327559e-04  1.178281334249e-03 -5.728311491377e-04
O -2.145431130000e-02 -1.126663444000e-01  5.404767650000e-02  2.346282168511e-05 -1.835970627295e-04  8.845334956299e-05
H -7.201746223000e-01  3.288403184000e-01 -1.532343328000e-01 -6.653230621627e-04  1.652298563123e-03 -7.990713999570e-04
3
step 1040
H  7.813010090000e-01  3.647633130000e-01 -1.831673887000e-01  1.545466838748e-04  1.191027712349e-03 -5.787696699067e-04
O -2.126926500000e-02 -1.135271168000e-01  5.446171610000e-02  5.934485464679e-05 -2.082136623918e-04  1.000256177487e-04
H -7.243497152000e-01  3.369430629000e-01 -1.571414842000e-01 -1.208695347019e-03  2.030387813688e-03 -9.770135605480e-04
3
step 1041
H  7.819059065000e-01  3.699912525000e-01 -1.857072235000e-01  1.162499500410e-04  1.193938534414e-03 -5.798598237326e-04
O -2.093499840000e-02 -1.144883733000e-01  5.492297720000e-02  9.114372004635e-05 -2.291998777604e-04  1.098841569161e-04
H -7.307516313000e-01  3.466077652000e-01 -1.617839489000e-01 -1.675345370896e-03  2.360692154297e-03 -1.132554292366e-03
3
step 1042
H  7.823182850000e-01  3.752111886000e-01 -1.882416058000e-01  6.711963086389e-05  1.187744429135e-03 -5.764630053028e-04
O -2.047168770000e-02 -1.155327911000e-01  5.542328650000e-02  1.180389867605e-04 -2.460418931889e-04  1.177877081595e-04
H -7.390102689000e-01  3.576009253000e-01 -1.670522007000e-01 -2.053335325000e-03  2.634312865863e-03 -1.261492614150e-03
3
step 1043
H  7.824932546000e-01  3.803849250000e-01 -1.907517159000e-01  8.338091535395e-06  1.173202358898e-03 -5.689543178204e-04
O -1.990206700000e-02 -1.166414281000e-01  5.595370970000e-02  1.396563240902e-04 -2.585034413352e-04  1.236249075018e-04
H -7.487198863000e-01  3.696600181000e-01 -1.728229744000e-01 -2.337892963731e-03  2.846741314023e-03 -1.361684818476e-03
3
step 1044
H  7.823912496000e-01  3.854776068000e-01 -1.932203914000e-01 -5.885314906734e-05  1.151075790664e-03 -5.577127041527e-04
O -1.924958800000e-02 -1.177948940000e-01  5.650509900000e-02  1.559943972948e-04 -2.665907250855e-04  1.273979673208e-04
H -7.594686209000e-01  3.825120898000e-01 -1.789679846000e-01 -2.530230546809e-03  2.997328696077e-03 -1.432798586972e-03
3
step 1045
H  7.819782445000e-01  3.904577188000e-01 -1.956321287000e-01 -1.331716065061e-04  1.122123378101e-03 -5.431152650425e-04
O -1.853699660000e-02 -1.189743009000e-01  5.706853940000e-02  1.673235918764e-04 -2.704962258961e-04  1.291967586160e-04
H -7.708613394000e-01  3.958889373000e-01 -1.853610582000e-01 -2.635923029079e-03  3.088402621083e-03 -1.475902324508e-03
3
step 1046
H  7.812258962000e-01  3.952970448000e-01 -1.979730655000e-01 -2.133082935173e-04  1.087093298078e-03 -5.255343656464e-04
O -1.778537860000e-02 -1.201619429000e-01  5.763566950000e-02  1.740837550913e-04 -2.705382016546e-04  1.291707220354e-04
H -7.825349641000e-01  4.095379755000e-01 -1.918832591000e-01 -2.663268245024e-03  3.124295651940e-03 -1.493011754270e-03
3
step 1047
H  7.801116338000e-01  3.999706168000e-01 -2.002309565000e-01 -2.979382973722e-04  1.046722542156e-03 -5.053371692905e-04
O -1.701363060000e-02 -1.213417171000e-01  5.819888210000e-02  1.767976480894e-04 -2.671065748396e-04  1.275035078072e-04
H -7.941669741000e-01  4.232289145000e-01 -1.984260532000e-01 -2.621896104658e-03  3.110469889359e-03 -1.486678918263e-03
3
step 1048
H  7.786187082000e-01  4.044566679000e-01 -2.023951523000e-01 -3.857290854373e-04  1.001739343807e-03 -4.828866430959e-04
O -1.623826390000e-02 -1.224993298000e-01  5.875142280000e-02  1.760067138157e-04 -2.606199465655e-04  1.243925843804e-04
H -8.054785609000e-01  4.367569667000e-01 -2.048928371000e-01 -2.521733200627e-03  3.052828021812e-03 -1.459667524559e-03
3
step 1049
H  7.767362092000e-01  4.087366024000e-01 -2.044565840000e-01 -4.753472063020e-04  9.528669723619e-04 -4.585432858285e-04
O -1.547343720000e-02 -1.236223410000e-01  5.928741230000e-02  1.722281459068e-04 -2.514945501534e-04  1.200344328613e-04
H -8.162340688000e-01  4.499434953000e-01 -2.111992608000e-01 -2.372314370115e-03  2.957227032056e-03 -1.414723582206e-03
3
step 1050
H  7.744590564000e-01  4.127949829000e-01 -2.064077568000e-01 -5.654641955485e-04  9.008276001075e-04 -4.326668786023e-04
O -1.473113580000e-02 -1.247000995000e-01  5.980181590000e-02  1.659295834749e-04 -2.401242665930e-04  1.146150712714e-04
H -8.262381266000e-01  4.626349656000e-01 -2.172727508000e-01 -2.182378762164e-03  2.829170000075e-03 -1.354430143070e-03
3
step 1051
H  7.717879648000e-01  4.166195331000e-01 -2.082427502000e-01 -6.547620335599e-04  8.463452917355e-04 -4.056179201832e-04
O -1.402142640000e-02 -1.257236120000e-01  6.029038190000e-02  1.575170253076e-04 -2.268696266474e-04  1.083048070056e-04
H -8.353315526000e-01  4.747008972000e-01 -2.230515608000e-01 -1.959678069294e-03  2.673637482396e-03 -1.281127153416e-03
3
step 1052
H  7.687293877000e-01  4.202011517000e-01 -2.099572239000e-01 -7.419383382091e-04  7.901476499140e-04 -3.777583903502e-04
O -1.335274140000e-02 -1.266853823000e-01  6.074956580000e-02  1.473321055343e-04 -2.120535232273e-04  1.012562941452e-04
H -8.433868089000e-01  4.860313391000e-01 -2.284835935000e-01 -1.710931790848e-03  2.495019755729e-03 -1.196878391655e-03
3
step 1053
H  7.652954368000e-01  4.235339296000e-01 -2.115484251000e-01 -8.257116901078e-04  7.329657055830e-04 -3.494517270406e-04
O -1.273215780000e-02 -1.275792426000e-01  6.117645190000e-02  1.356555447531e-04 -1.959615085087e-04  9.360466144684e-05
H -8.503035148000e-01  4.965342289000e-01 -2.335251624000e-01 -1.441876705232e-03  2.297117735745e-03 -1.103471258081e-03
3
step 1054
H  7.615037787000e-01  4.266151624000e-01 -2.130151939000e-01 -9.048276435090e-04  6.755318929883e-04 -3.210618115816e-04
O -1.216565160000e-02 -1.284001954000e-01  6.156867820000e-02  1.227140888529e-04 -1.788447285327e-04  8.546895221627e-05
H -8.560043332000e-01  5.061328766000e-01 -2.381398112000e-01 -1.157369754641e-03  2.083186726389e-03 -1.002437225645e-03
3
step 1055
H  7.573775027000e-01  4.294453504000e-01 -2.143579616000e-01 -9.780637224420e-04  6.185764888499e-04 -2.929512545541e-04
O -1.165831560000e-02 -1.291442708000e-01  6.192437060000e-02  1.086889014225e-04 -1.609240005636e-04  7.695399843043e-05
H -8.604313855000e-01  5.147637065000e-01 -2.422972550000e-01 -8.615138123421e-04  1.856001918157e-03 -8.950825618500e-04
3
step 1056
H  7.529449728000e-01  4.320281799000e-01 -2.155787415000e-01 -1.044236661222e-03  5.628216471696e-04 -2.654784611928e-04
O -1.121454050000e-02 -1.298084035000e-01  6.224208460000e-02  9.372426698920e-05 -1.423942058480e-04  6.815246855835e-05
H -8.635432382000e-01  5.223743134000e-01 -2.459724684000e-01 -5.577877833025e-04  1.617932658171e-03 -7.825230914198e-04
3
step 1057
H  7.482396330000e-01  4.343704704000e-01 -2.166811013000e-01 -1.102211171684e-03  5.089726274264e-04 -2.389933346182e-04
O -1.083815660000e-02 -1.303903290000e-01  6.252075680000e-02  7.793601999654e-05 -1.234283806850e-04  5.914675539605e-05
H -8.653124554000e-01  5.289218551000e-01 -2.491449307000e-01 -2.491701682415e-04  1.371016770542e-03 -6.657189315501e-04
3
step 1058
H  7.432997818000e-01  4.364820798000e-01 -2.176701160000e-01 -1.150911352470e-03  4.577079440089e-04 -2.138324031206e-04
O -1.053254070000e-02 -1.308884963000e-01  6.275966400000e-02  6.141969037763e-05 -1.041818166396e-04  5.001087304359e-05
H -8.657236678000e-01  5.343717590000e-01 -2.517980184000e-01  6.174299011011e-05  1.117035644658e-03 -5.455096705462e-04
3
step 1059
H  7.381682782000e-01  4.383757651000e-01 -2.185522984000e-01 -1.189332107460e-03  4.096664302042e-04 -1.903124938555e-04
O -1.030068730000e-02 -1.313019996000e-01  6.295839020000e-02  4.425785376966e-05 -8.479551166957e-05  4.081205219412e-05
H -8.647721570000e-01  5.386967716000e-01 -2.539185577000e-01  3.726326259469e-04  8.575832074408e-04 -4.226467032818e-04
3
step 1060
H  7.328922160000e-01  4.400669745000e-01 -2.193354959000e-01 -1.216553247396e-03  3.654324189213e-04 -1.687234466238e-04
O -1.014525060000e-02 -1.316305219000e-01  6.311680070000e-02  2.652714804329e-05 -6.539938355840e-05  3.161227142857e-05
H -8.624628472000e-01  5.418762682000e-01 -2.554965004000e-01  6.813593377548e-04  5.941323632502e-04 -2.978245061786e-04
3
step 1061
H  7.275225065000e-01  4.415735783000e-01 -2.200287576000e-01 -1.231756297555e-03  3.255196343860e-04 -1.493202014206e-04
O -1.006855440000e-02 -1.318742943000e-01  6.323502180000e-02  8.305152701096e-06 -4.611546049379e-05  2.246970623185e-05
H -8.588097415000e-01  5.438958843000e-01 -2.565247499000e-01  9.858706878447e-04  3.281017034814e-04 -1.717120630302e-04
3
step 1062
H  7.221134060000e-01  4.429155204000e-01 -2.206421619000e-01 -1.234243101837e-03  2.903520349582e-04 -1.323133729739e-04
O -1.007257420000e-02 -1.320340675000e-01  6.331342780000e-02 -1.032301055662e-05 -2.706071053443e-05  1.344008658837e-05
H -8.538357244000e-01  5.447474091000e-01 -2.569991123000e-01  1.284114732198e-03  6.091996721348e-05 -4.498334005149e-05
3
step 1063
H  7.167219351000e-01  4.441143808000e-01 -2.211866009000e-01 -1.223456113563e-03  2.602451496214e-04 -1.178600538340e-04
O -1.015888870000e-02 -1.321110962000e-01  6.335263280000e-02 -2.925808183716e-05 -8.350040204956e-06  4.578072861802e-06
H -8.475727552000e-01  5.444289806000e-01 -2.569183886000e-01  1.573955497573e-03 -2.059077017264e-04  8.165136143360e-05
3
step 1064
H  7.114072290000e-01  4.451928645000e-01 -2.216735276000e-01 -1.198997525227e-03  2.353875333179e-04 -1.060546814582e-04
O -1.032860480000e-02 -1.321071367000e-01  6.335348940000e-02 -4.838021790466e-05  9.900528638929e-06 -4.061281475718e-06
H -8.400624097000e-01  5.429455592000e-01 -2.562846004000e-01  1.853089756780e-03 -4.707305996666e-04  2.074126718545e-04
3
step 1065
H  7.062297895000e-01  4.461742018000e-01 -2.221146605000e-01 -1.160650519218e-03  2.158224645494e-04 -9.692001042843e-05
O -1.058225260000e-02 -1.320244590000e-01  6.331709350000e-02 -6.754230933582e-05  2.757038939953e-05 -1.242090712829e-05
H -8.313568021000e-01  5.403097277000e-01 -2.551033690000e-01  2.118962044110e-03 -7.316788649543e-04  3.314171941649e-04
3
step 1066
H  7.012506490000e-01  4.470814762000e-01 -2.225216518000e-01 -1.108398488986e-03  2.014329752572e-04 -9.039968910024e-05
O -1.091965160000e-02 -1.318658747000e-01  6.324479700000e-02 -8.656340280935e-05  4.453049278878e-05 -2.043992256191e-05
H -8.215198707000e-01  5.365428093000e-01 -2.533844464000e-01  2.368679245665e-03 -9.865865155424e-04  4.526409447533e-04
3
step 1067
H  6.965304548000e-01  4.479368944000e-01 -2.229057269000e-01 -1.042442331251e-03  1.919303958238e-04 -8.635258695619e-05
O -1.133974860000e-02 -1.316347831000e-01  6.313822860000e-02 -1.052220502588e-04  6.063881236751e-05 -2.805155875735e-05
H -8.106290466000e-01  5.316763409000e-01 -2.511424145000e-01  2.598922209366e-03 -1.232907456333e-03  5.698793980794e-04
3
step 1068
H  6.921284811000e-01  4.487610140000e-01 -2.232773030000e-01 -9.632128609182e-04  1.868496880524e-04 -8.455039481550e-05
O -1.184042510000e-02 -1.313352387000e-01  6.299932440000e-02 -1.232498500090e-04  7.573509700435e-05 -3.518075027791e-05
H -7.987773130000e-01  5.257539259000e-01 -2.483975656000e-01  2.805856436196e-03 -1.467626897208e-03  6.817053143617e-04
3
step 1069
H  6.881016053000e-01  4.495719721000e-01 -2.236456076000e-01 -8.713796651557e-04  1.855512507234e-04 -8.467844304825e-05
O -1.241827900000e-02 -1.309720431000e-01  6.283037010000e-02 -1.403253444519e-04  8.963505195583e-05 -4.174134694179e-05
H -7.860756561000e-01  5.188334828000e-01 -2.451769714000e-01  2.985045838593e-03 -1.687171312902e-03  7.864257947608e-04
3
step 1070
H  6.845032424000e-01  4.503847294000e-01 -2.240183042000e-01 -7.678556012916e-04  1.872303130584e-04 -8.634014461551e-05
O -1.306837920000e-02 -1.305508634000e-01  6.263405570000e-02 -1.560690010576e-04  1.021243599607e-04 -4.763323864491e-05
H -7.726558782000e-01  5.109898861000e-01 -2.415157383000e-01  3.131379092032e-03 -1.887325273132e-03  8.820425088564e-04
3
step 1071
H  6.813822813000e-01  4.512103806000e-01 -2.244011499000e-01 -6.537939079217e-04  1.909362610311e-04 -8.906637024961e-05
O -1.378400220000e-02 -1.300783768000e-01  6.241354280000e-02 -1.700405154666e-04  1.129534245565e-04 -5.273969045107e-05
H -7.586736934000e-01  5.023179427000e-01 -2.374584247000e-01  3.239026068555e-03 -2.063170725619e-03  9.662224309211e-04
3
step 1072
H  6.787820455000e-01  4.520555678000e-01 -2.247977031000e-01 -5.305793553979e-04  1.956006394897e-04 -9.232901983894e-05
O -1.455636380000e-02 -1.295624345000e-01  6.217254300000e-02 -1.817401233756e-04  1.218343851979e-04 -5.692562388507e-05
H -7.443119221000e-01  4.929355638000e-01 -2.330605528000e-01  3.301449963702e-03 -2.209071463733e-03  1.036289959466e-03
3
step 1073
H  6.767393061000e-01  4.529220358000e-01 -2.252090995000e-01 -3.998126586199e-04  2.000734826950e-04 -9.555868031266e-05
O -1.537436730000e-02 -1.290122327000e-01  6.191540000000e-02 -1.906160558852e-04  1.284425159913e-04 -6.003810603277e-05
H -7.297834804000e-01  4.829868774000e-01 -2.283900947000e-01  3.311506049026e-03 -2.318732307602e-03  1.089254521684e-03
3
step 1074
H  6.752833788000e-01  4.538063638000e-01 -2.256339146000e-01 -2.632881749849e-04  2.031664922596e-04 -9.816566151567e-05
O -1.622440010000e-02 -1.284384642000e-01  6.164716360000e-02 -1.960805015332e-04  1.324245769651e-04 -6.191032633631e-05
H -7.153337107000e-01  4.726448822000e-01 -2.235287424000e-01  3.261667261507e-03 -2.385370289150e-03  1.121891599509e-03
3
step 1075
H  6.744353331000e-01  4.546998981000e-01 -2.260681241000e-01 -1.229647823623e-04  2.037008043995e-04 -9.956332674023e-05
O -1.709022170000e-02 -1.278534164000e-01  6.137363730000e-02 -1.975367262091e-04  1.334168376359e-04 -6.237039125367e-05
H -7.012413966000e-01  4.621130624000e-01 -2.185726849000e-01  3.144422664718e-03 -2.402040822430e-03  1.130897582362e-03
3
step 1076
H  6.742073429000e-01  4.555889017000e-01 -2.265051699000e-01  1.906972007903e-05  2.005564393251e-04 -9.919233289214e-05
O -1.795299760000e-02 -1.272709649000e-01  6.110137500000e-02 -1.944200021465e-04  1.310756297666e-04 -6.125604297176e-05
H -6.878176068000e-01  4.516251873000e-01 -2.136325234000e-01  2.952892179071e-03 -2.362163440513e-03  1.113139089351e-03
3
step 1077
H  6.746022077000e-01  4.564549204000e-01 -2.269361329000e-01  1.606410355902e-04  1.927201644851e-04 -9.654417586073e-05
O -1.879154550000e-02 -1.267064043000e-01  6.083760010000e-02 -1.862544121000e-04  1.251221983013e-04 -5.843593754598e-05
H -6.754013309000e-01  4.414423251000e-01 -2.088318663000e-01  2.681689148689e-03 -2.260279566954e-03  1.066012398417e-03
3
step 1078
H  6.756130749000e-01  4.572753506000e-01 -2.273500053000e-01  2.995358491198e-04  1.793272646281e-04 -9.118192013491e-05
O -1.958286620000e-02 -1.261760499000e-01  6.059001580000e-02 -1.727247104899e-04  1.154012151068e-04 -5.383724020176e-05
H -6.643507751000e-01  4.318460118000e-01 -2.043040993000e-01  2.328018343683e-03 -2.093030697687e-03  9.879079040076e-04
3
step 1079
H  6.772233756000e-01  4.580241711000e-01 -2.277340445000e-01  4.335569767771e-04  1.596966564472e-04 -8.275770127287e-05
O -2.030301880000e-02 -1.256965554000e-01  6.036648300000e-02 -1.537572671827e-04  1.019472874429e-04 -4.747684546191e-05
H -6.550293893000e-01  4.231267053000e-01 -2.001869163000e-01  1.892906997669e-03 -1.860261454298e-03  8.787345923678e-04
3
step 1080
H  6.794070301000e-01  4.586728185000e-01 -2.280741985000e-01  5.605851752856e-04  1.333571857087e-04 -7.102606873541e-05
O -2.092835990000e-02 -1.252839331000e-01  6.017455710000e-02 -1.295966413668e-04  8.504759934272e-05 -3.949091970654e-05
H -6.477863907000e-01  4.155673009000e-01 -1.966144994000e-01  1.382357511543e-03 -1.566047754696e-03  7.404093656082e-04
3
step 1081
H  6.821289247000e-01  4.591911485000e-01 -2.283555769000e-01  6.786422953178e-04  1.000618431527e-04 -5.585140923695e-05
O -2.143708860000e-02 -1.249523238000e-01  6.002090730000e-02 -1.008575861489e-04  6.528268519042e-05 -3.015435090098e-05
H -6.429327035000e-01  4.094225893000e-01 -1.937077679000e-01  8.081078989990e-04 -1.219356449157e-03  5.771714187916e-04
3
step 1082
H  6.853456694000e-01  4.595484362000e-01 -2.285629411000e-01  7.859533423551e-04  5.979044768663e-05 -3.720976601499e-05
O -2.181094090000e-02 -1.247126597000e-01  5.991068350000e-02 -6.853014067967e-05  4.352505841262e-05 -1.988035091630e-05
H -6.407148284000e-01  4.048969991000e-01 -1.915638079000e-01  1.876470903320e-04 -8.340213589854e-04  3.955717219951e-04
3
step 1083
H  6.890066178000e-01  4.597143606000e-01 -2.286811908000e-01  8.810018592735e-04  1.274092943305e-05 -1.518505401819e-05
O -2.203677970000e-02 -1.245714463000e-01  5.984693900000e-02 -3.392175178626e-05  2.088263585354e-05 -9.193742436357e-06
H -6.412906479000e-01  4.021242644000e-01 -1.902462127000e-01 -4.567597983381e-04 -4.278312602589e-04  2.040405232678e-04
3
step 1084
H  6.930551097000e-01  4.596599291000e-01 -2.286958219000e-01  9.625744207398e-04 -4.068959432972e-05  1.003984445793e-05
O -2.210778220000e-02 -1.245299207000e-01  5.983023120000e-02  1.462898378072e-06 -1.410870927061e-06  1.320995356706e-06
H -6.447118260000e-01  4.011531483000e-01 -1.897782972000e-01 -1.100022124225e-03 -2.077006512467e-05  1.205188339366e-05
3
step 1085
H  6.974298804000e-01  4.593582956000e-01 -2.285933345000e-01  1.029792113887e-03 -9.993027065670e-05  3.819515642940e-05
O -2.202397830000e-02 -1.245837925000e-01  5.985849870000e-02  3.608339592706e-05 -2.213783124914e-05  1.108717688505e-05
H -6.509166831000e-01  4.019425104000e-01 -1.901407495000e-01 -1.716816739158e-03  3.672600351248e-04 -1.709576512774e-04
3
step 1086
H  7.020665786000e-01  4.587854627000e-01 -2.283615851000e-01  1.082124036562e-03 -1.642675207964e-04  6.893920662752e-05
O -2.179202490000e-02 -1.247236436000e-01  5.992725250000e-02  6.853063435079e-05 -4.023736872693e-05  1.960269747847e-05
H -6.597352860000e-01  4.043669545000e-01 -1.912743075000e-01 -2.284250586491e-03  7.187008179678e-04 -3.366634920294e-04
3
step 1087
H  7.068992936000e-01  4.579208291000e-01 -2.279900637000e-01  1.119385496343e-03 -2.328781070138e-04  1.018744663814e-04
O -2.142428280000e-02 -1.249359002000e-01  6.003003730000e-02  9.766085993841e-05 -5.491116687505e-05  2.649016384841e-05
H -6.709056232000e-01  4.082316924000e-01 -1.930868126000e-01 -2.783983194384e-03  1.020050492497e-03 -4.786663035273e-04
3
step 1088
H  7.118620581000e-01  4.567476011000e-01 -2.274701055000e-01  1.141723707786e-03 -3.048600281748e-04  1.365626380133e-04
O -2.093741770000e-02 -1.252041583000e-01  6.015906170000e-02  1.226713223065e-04 -6.567454121444e-05  3.152097426823e-05
H -6.840972688000e-01  4.132931767000e-01 -1.954630038000e-01 -3.203412053302e-03  1.262710080273e-03 -5.928937469764e-04
3
step 1089
H  7.168902495000e-01  4.552530706000e-01 -2.267950361000e-01  1.149590475960e-03 -3.792614680724e-04  1.725388935939e-04
O -2.035081490000e-02 -1.255106027000e-01  6.030587000000e-02  1.431126344612e-04 -7.235179967806e-05  3.461292792512e-05
H -6.989379295000e-01  4.192813716000e-01 -1.982750865000e-01 -3.535844230723e-03  1.442945192381e-03 -6.775821594387e-04
3
step 1090
H  7.219218543000e-01  4.534287731000e-01 -2.259602582000e-01  1.143707639465e-03 -4.551055475479e-04  2.093241115861e-04
O -1.968507260000e-02 -1.258372919000e-01  6.046195130000e-02  1.588501384620e-04 -7.502978724411e-05  3.580825198410e-05
H -7.150386109000e-01  4.259200511000e-01 -2.013923661000e-01 -3.779853853602e-03  1.561178808981e-03 -7.329405649240e-04
3
step 1091
H  7.268985664000e-01  4.512705489000e-01 -2.249632900000e-01  1.125025492356e-03 -5.314119774552e-04  2.464356370478e-04
O -1.896075470000e-02 -1.261671708000e-01  6.061921960000e-02  1.699956553889e-04 -7.399043583347e-05  3.524172780352e-05
H -7.320145425000e-01  4.329428806000e-01 -2.046888772000e-01 -3.938164866631e-03  1.620935773881e-03 -7.606490176807e-04
3
step 1092
H  7.317666880000e-01  4.487785118000e-01 -2.238037579000e-01  1.094680168439e-03 -6.072137657713e-04  2.833956968957e-04
O -1.819748060000e-02 -1.264847648000e-01  6.077034340000e-02  1.768305229293e-04 -6.964051216643e-05  3.310743212867e-05
H -7.495005664000e-01  4.401044792000e-01 -2.080486269000e-01 -4.016386996468e-03  1.627730750052e-03 -7.633296427304e-04
3
step 1093
H  7.364778554000e-01  4.459569639000e-01 -2.224833609000e-01  1.053952949970e-03 -6.815691525527e-04  3.197374839448e-04
O -1.741335230000e-02 -1.267765785000e-01  6.090893500000e-02  1.797349546963e-04 -6.245050767731e-05  2.962967449003e-05
H -7.671610014000e-01  4.471867699000e-01 -2.113685955000e-01 -4.021846427698e-03  1.588097182247e-03 -7.440850853667e-04
3
step 1094
H  7.409895826000e-01  4.428142602000e-01 -2.210058103000e-01  1.004230952240e-03 -7.535710216838e-04  3.550100570514e-04
O -1.662466220000e-02 -1.270312546000e-01  6.102962570000e-02  1.791315925938e-04 -5.290749749325e-05  2.504043917564e-05
H -7.846947996000e-01  4.540015445000e-01 -2.145599407000e-01 -3.962641076282e-03  1.508846424632e-03 -7.061472550096e-04
3
step 1095
H  7.452656445000e-01  4.393626409000e-01 -2.193767513000e-01  9.469727402920e-04 -8.223531494740e-04  3.887816962484e-04
O -1.584581380000e-02 -1.272395596000e-01  6.112805800000e-02  1.754446006780e-04 -4.148241186733e-05  1.956376145425e-05
H -8.018371425000e-01  4.603903305000e-01 -2.175479243000e-01 -3.846954770673e-03  1.396563176907e-03 -6.526388317722e-04
3
step 1096
H  7.492763186000e-01  4.356180410000e-01 -2.176036730000e-01  8.836785349543e-04 -8.870945105662e-04  4.206422751092e-04
O -1.508938780000e-02 -1.273942574000e-01  6.120082350000e-02  1.690726320929e-04 -2.860990079619e-05  1.340614212772e-05
H -8.183585969000e-01  4.662225408000e-01 -2.202710297000e-01 -3.682604381694e-03  1.257301282331e-03 -5.864295624543e-04
3
step 1097
H  7.529985077000e-01  4.315998853000e-01 -2.156958096000e-01  8.158647019304e-04 -9.470227244931e-04  4.502051622959e-04
O -1.436629890000e-02 -1.274899182000e-01  6.124537190000e-02  1.603731824384e-04 -1.467809491529e-05  6.751830229201e-06
H -8.340627482000e-01  4.713926786000e-01 -2.226796316000e-01 -3.476772929301e-03  1.096432056406e-03 -5.100643308311e-04
3
step 1098
H  7.564157589000e-01  4.273308677000e-01 -2.136640334000e-01  7.450417925747e-04 -1.001417278252e-03  4.771089814051e-04
O -1.368599970000e-02 -1.275227020000e-01  6.125990720000e-02  1.496558246470e-04 -2.557947775941e-08 -2.384294387793e-07
H -8.487830199000e-01  4.758171601000e-01 -2.247344829000e-01 -3.235884427814e-03  9.186006472746e-04 -4.257423457590e-04
3
step 1099
H  7.595181934000e-01  4.228367180000e-01 -2.115207410000e-01  6.726953501426e-04 -1.049613082567e-03  5.010194668062e-04
O -1.305669600000e-02 -1.274901420000e-01  6.124328550000e-02  1.371820489984e-04  1.505692350692e-05 -7.426450101360e-06
H -8.623792125000e-01  4.794311370000e-01 -2.264052028000e-01 -2.965580655948e-03  7.277530276361e-04 -3.353301640367e-04
3
step 1100
H  7.623023579000e-01  4.181459502000e-01 -2.092797298000e-01  6.002686678689e-04 -1.091004864644e-03  5.216317125868e-04
O -1.248555180000e-02 -1.273909424000e-01  6.119492010000e-02  1.231691804908e-04  3.032234992637e-05 -1.469461461375e-05
H -8.747341195000e-01  4.821855559000e-01 -2.276688784000e-01 -2.670762798885e-03  5.272038379628e-04 -2.403944326855e-04
3
step 1101
H  7.647710035000e-01  4.132895907000e-01 -2.069560644000e-01  5.291464201143e-04 -1.125052639697e-03  5.386729608812e-04
O -1.197887140000e-02 -1.272247982000e-01  6.111469640000e-02  1.077964537388e-04  4.556200031382e-05 -2.194340253461e-05
H -8.857504303000e-01  4.840445740000e-01 -2.285088380000e-01 -2.355668662094e-03  3.197229023626e-04 -1.422434533147e-04
3
step 1102
H  7.669327939000e-01  4.083008789000e-01 -2.045659292000e-01  4.606379643958e-04 -1.151288809753e-03  5.519060987069e-04
O -1.154225040000e-02 -1.269922400000e-01  6.100289850000e-02  9.121208435467e-05  6.060021917046e-05 -2.908891719940e-05
H -8.953480225000e-01  4.849833759000e-01 -2.289136174000e-01 -2.023966491703e-03  1.076265897337e-04 -4.197080345082e-05
3
step 1103
H  7.688019381000e-01  4.032149328000e-01 -2.021264638000e-01  3.959610639532e-04 -1.169326016681e-03  5.611336164758e-04
O -1.118069590000e-02 -1.266944999000e-01  6.086014610000e-02  7.354062830497e-05  7.528929826821e-05 -3.606053621150e-05
H -9.034616855000e-01  4.849863890000e-01 -2.288761146000e-01 -1.678855084598e-03 -1.071334351381e-04  5.950246829451e-05
3
step 1104
H  7.703977561000e-01  3.980683816000e-01 -1.996555808000e-01  3.362236402019e-04 -1.178867011041e-03  5.662025081375e-04
O -1.089871360000e-02 -1.263334010000e-01  6.068734120000e-02  5.489048296925e-05  8.950492847596e-05 -4.279879505587e-05
H -9.100392889000e-01  4.840458764000e-01 -2.283929253000e-01 -1.323164767025e-03 -3.228871742678e-04  1.613884765239e-04
3
step 1105
H  7.717441521000e-01  3.928989446000e-01 -1.971717586000e-01  2.824045881242e-04 -1.179713615876e-03  5.670087507870e-04
O -1.070036210000e-02 -1.259112634000e-01  6.048562390000e-02  3.536120992810e-05  1.031419806999e-04 -4.925341698559e-05
H -9.150403895000e-01  4.821608792000e-01 -2.274638420000e-01 -9.594548946366e-04 -5.381700928492e-04  2.629964610621e-04
3
step 1106
H  7.728690123000e-01  3.877449849000e-01 -1.946938204000e-01  2.353319450353e-04 -1.171780480933e-03  5.635041566377e-04
O -1.058927600000e-02 -1.254308297000e-01  6.025633620000e-02  1.505115486844e-05  1.161109313389e-04 -5.538161259905e-05
H -9.184352532000e-01  4.793364763000e-01 -2.260915051000e-01 -5.901138986023e-04 -7.516516192199e-04  3.636989293450e-04
3
step 1107
H  7.738034867000e-01  3.826449689000e-01 -1.922406661000e-01  1.956636191259e-04 -1.155103465935e-03  5.557005920805e-04
O -1.056865300000e-02 -1.248952039000e-01  6.000099240000e-02 -5.935087926289e-06  1.283340546175e-04 -6.114633370698e-05
H -9.202043376000e-01  4.755833524000e-01 -2.242811981000e-01 -2.174584312239e-04 -9.620664377264e-04  4.628991838303e-04
3
step 1108
H  7.745812187000e-01  3.776369459000e-01 -1.898310151000e-01  1.638680174410e-04 -1.129847850145e-03  5.436741327496e-04
O -1.064121260000e-02 -1.243078086000e-01  5.972125900000e-02 -2.747931164858e-05  1.397419028934e-04 -6.651460947786e-05
H -9.203381809000e-01  4.709176590000e-01 -2.220407830000e-01  1.561687363373e-04 -1.168150119495e-03  5.600009017998e-04
3
step 1109
H  7.752374572000e-01  3.727579358000e-01 -1.874831015000e-01  1.402040247737e-04 -1.096319746226e-03  5.275707727372e-04
O -1.080911800000e-02 -1.236723553000e-01  5.941893870000e-02 -4.944185308122e-05  1.502700063750e-04 -7.145601514330e-05
H -9.188377417000e-01  4.653611452000e-01 -2.193807618000e-01  5.282944123234e-04 -1.368575374861e-03  6.543780259925e-04
3
step 1110
H  7.758081111000e-01  3.680433094000e-01 -1.852143672000e-01  1.247071854449e-04 -1.054967983507e-03  5.076074759304e-04
O -1.107386660000e-02 -1.229928310000e-01  5.909596420000e-02 -7.165389041363e-05  1.598548186184e-04 -7.594077959204e-05
H -9.157152006000e-01  4.589415774000e-01 -2.163144747000e-01  8.962061253262e-04 -1.561885462624e-03  7.453433067835e-04
3
step 1111
H  7.763287405000e-01  3.635261588000e-01 -1.830411478000e-01  1.171796881785e-04 -1.006384309106e-03  4.840723999914e-04
O -1.143614440000e-02 -1.222735033000e-01  5.875439880000e-02 -9.390943479916e-05  1.684294060473e-04 -7.993776040414e-05
H -9.109952524000e-01  4.516934525000e-01 -2.128584376000e-01  1.256835183655e-03 -1.746425551472e-03  8.321159895802e-04
3
step 1112
H  7.768335231000e-01  3.592366767000e-01 -1.809783634000e-01  1.171877103342e-04 -9.512986020628e-04  4.573225697039e-04
O -1.189564600000e-02 -1.215189449000e-01  5.839644760000e-02 -1.159572030658e-04  1.759185798073e-04 -8.341216747858e-05
H -9.047169312000e-01  4.436590177000e-01 -2.090328232000e-01  1.606629765290e-03 -1.920270159473e-03  9.137876646663e-04
3
step 1113
H  7.773542227000e-01  3.552015683000e-01 -1.790392254000e-01  1.240660620725e-04 -8.905682274153e-04  4.277787574208e-04
O -1.245085860000e-02 -1.207340812000e-01  5.802447850000e-02 -1.374922710172e-04  1.822333602497e-04 -8.632292097859e-05
H -8.969360128000e-01  4.348896195000e-01 -2.048620965000e-01  1.941417668167e-03 -2.081145464866e-03  9.892858315294e-04
3
step 1114
H  7.779191960000e-01  3.514435234000e-01 -1.772349720000e-01  1.369337095689e-04 -8.251606388600e-04  3.959168758168e-04
O -1.309880860000e-02 -1.199242636000e-01  5.764105600000e-02 -1.581478775780e-04  1.872647009089e-04 -8.861968473386e-05
H -8.877280413000e-01  4.254474027000e-01 -2.003758153000e-01  2.256260348086e-03 -2.226347827470e-03  1.057335621065e-03
3
step 1115
H  7.785524974000e-01  3.479807814000e-01 -1.755746498000e-01  1.547181980214e-04 -7.561297968160e-04  3.622564086138e-04
O -1.383477350000e-02 -1.190953718000e-01  5.724898850000e-02 -1.774876723289e-04  1.908767736609e-04 -9.023961166795e-05
H -8.771920086000e-01  4.154073727000e-01 -1.956096009000e-01  2.545305297329e-03 -2.352662227817e-03  1.116421060680e-03
3
step 1116
H  7.792730986000e-01  3.448268092000e-01 -1.740649513000e-01  1.761886179110e-04 -6.845869138394e-04  3.273459067069e-04
O -1.465196150000e-02 -1.182539457000e-01  5.685139040000e-02 -1.949993663473e-04  1.929004367231e-04 -9.110410750984e-05
H -8.654546726000e-01  4.048598083000e-01 -1.906062769000e-01  2.801652817452e-03 -2.456289615219e-03  1.164750224762e-03
3
step 1117
H  7.800942825000e-01  3.419901222000e-01 -1.727101227000e-01  1.999986503808e-04 -6.116658153662e-04  2.917458376633e-04
O -1.554116720000e-02 -1.174073454000e-01  5.645175790000e-02 -2.100916147656e-04  1.931278042719e-04 -9.111620702336e-05
H -8.526754031000e-01  3.939129594000e-01 -1.854171453000e-01  3.017263775922e-03 -2.532799026236e-03  1.200231945297e-03
3
step 1118
H  7.810232398000e-01  3.394742654000e-01 -1.715119520000e-01  2.247364051643e-04 -5.384846664875e-04  2.560096205238e-04
O -1.649042390000e-02 -1.165639297000e-01  5.605405390000e-02 -2.220962977148e-04  1.913096592404e-04 -9.015930326109e-05
H -8.390513062000e-01  3.826958791000e-01 -1.801033291000e-01  3.182946747817e-03 -2.577126071670e-03  1.220474481688e-03
3
step 1119
H  7.820608980000e-01  3.372779694000e-01 -1.704698427000e-01  2.489790718070e-04 -4.661058748837e-04  2.206637326846e-04
O -1.748467970000e-02 -1.157332395000e-01  5.566279500000e-02 -2.302795227909e-04  1.871578073979e-04 -8.809833146093e-05
H -8.248221839000e-01  3.713611346000e-01 -1.747370599000e-01  3.288477438518e-03 -2.583647686599e-03  1.222820763400e-03
3
step 1120
H  7.832019972000e-01  3.353954824000e-01 -1.695809755000e-01  2.713500758117e-04 -3.954963137312e-04  1.861879859079e-04
O -1.850554590000e-02 -1.149261557000e-01  5.528312610000e-02 -2.338655543912e-04  1.803550604777e-04 -8.478465547591e-05
H -8.102746128000e-01  3.600869853000e-01 -1.694027120000e-01  3.322919917347e-03 -2.546371672662e-03  1.204438992313e-03
3
step 1121
H  7.844354188000e-01  3.338170741000e-01 -1.688405553000e-01  2.905755125614e-04 -3.274902826549e-04  1.529971370728e-04
O -1.953118220000e-02 -1.141549947000e-01  5.492086440000e-02 -2.320785837768e-04  1.705755544001e-04 -8.006581320792e-05
H -7.957440924000e-01  3.490784344000e-01 -1.641972973000e-01  3.275232265174e-03 -2.459286500617e-03  1.162489051038e-03
3
step 1122
H  7.857447552000e-01  3.325296919000e-01 -1.682421335000e-01  3.055361976258e-04 -2.627581321860e-04  1.214252781108e-04
O -2.053641110000e-02 -1.134334891000e-01  5.458248900000e-02 -2.242074045600e-04  1.575180537891e-04 -7.380108553205e-05
H -7.816138248000e-01  3.385663469000e-01 -1.592300434000e-01  3.135240902949e-03 -2.316917833107e-03  1.094385007960e-03
3
step 1123
H  7.871090943000e-01  3.315177394000e-01 -1.677779913000e-01  3.153124994121e-04 -2.017829835115e-04  9.171414331459e-05
O -2.149316860000e-02 -1.127765912000e-01  5.427504850000e-02 -2.096958413698e-04  1.409537192246e-04 -6.588366578690e-05
H -7.683083359000e-01  3.288036308000e-01 -1.546205912000e-01  2.895033791028e-03 -2.115118988125e-03  9.981670024381e-04
3
step 1124
H  7.885039808000e-01  3.307639364000e-01 -1.674395646000e-01  3.192192344005e-04 -1.448474404937e-04  6.400635335716e-05
O -2.237141010000e-02 -1.122000362000e-01  5.400595650000e-02 -1.882558142515e-04  1.207868745006e-04 -5.626894987239e-05
H -7.562800643000e-01  3.200574376000e-01 -1.504953185000e-01  2.550722670521e-03 -1.852065357205e-03  8.729690256195e-04
3
step 1125
H  7.899025068000e-01  3.302502135000e-01 -1.672178867000e-01  3.168289702490e-04 -9.203125387393e-05  3.834413083248e-05
O -2.314055100000e-02 -1.117196137000e-01  5.378265210000e-02 -1.599894948430e-04  9.712193563036e-05 -4.500593007635e-05
H -7.459875611000e-01  3.125966420000e-01 -1.469814443000e-01  2.104359366601e-03 -1.529328674921e-03  7.195255961395e-04
3
step 1126
H  7.912764767000e-01  3.299585925000e-01 -1.671040241000e-01  3.079797599744e-04 -4.322093414640e-05  1.467385757149e-05
O -2.377144060000e-02 -1.113501450000e-01  5.361212020000e-02 -1.254941246393e-04  7.032192915858e-05 -3.226519262651e-05
H -7.378653099000e-01  3.066746417000e-01 -1.441989191000e-01  1.565589189077e-03 -1.152793514762e-03  5.406077402864e-04
3
step 1127
H  7.925975653000e-01  3.298719972000e-01 -1.670894792000e-01  2.927672706407e-04  1.870007925550e-06 -7.144083932734e-06
O -2.423872060000e-02 -1.111042430000e-01  5.350030700000e-02 -8.591300481937e-05  4.103789759032e-05 -1.835337128399e-05
H -7.322874579000e-01  3.025088168000e-01 -1.422507130000e-01  9.524653206229e-04 -7.330937675289e-04  3.412343198104e-04
3
step 1128
H  7.938384143000e-01  3.299749565000e-01 -1.671665403000e-01  2.715204060618e-04  4.367136333482e-05 -2.732068323244e-05
O -2.452324510000e-02 -1.109910320000e-01  5.345151410000e-02 -4.289797267005e-05  1.018958679387e-05 -3.704421249006e-06
H -7.295305097000e-01  3.002595104000e-01 -1.412128577000e-01  2.908768302159e-04 -2.852681777479e-04  1.285123156027e-04
3
step 1129
H  7.949735766000e-01  3.302541551000e-01 -1.673285561000e-01  2.447637786543e-04  8.272040167699e-05 -4.612067146674e-05
O -2.461411060000e-02 -1.110150763000e-01  5.346789050000e-02  1.531509521955e-06 -2.111114158856e-05  1.115650568047e-05
H -7.297420631000e-01  3.000125020000e-01 -1.411261319000e-01 -3.876495712350e-04  1.724927673412e-04 -8.895480514709e-05
3
step 1130
H  7.959802846000e-01  3.306988233000e-01 -1.675701315000e-01  2.131587020253e-04  1.196169242231e-04 -6.384029701905e-05
O -2.450984320000e-02 -1.111757706000e-01  5.354914210000e-02  4.521621111912e-05 -5.168421245045e-05  2.567167998348e-05
H -7.329227400000e-01  3.017689541000e-01 -1.419912803000e-01 -1.049506042783e-03  6.208553798821e-04 -3.020171773092e-04
3
step 1131
H  7.968388783000e-01  3.313008947000e-01 -1.678872076000e-01  1.774506698499e-04  1.549834593999e-04 -8.078760609839e-05
O -2.421843420000e-02 -1.114673527000e-01  5.369253730000e-02  8.611740294794e-05 -8.042342765440e-05  3.931813938492e-05
H -7.389260439000e-01  3.054454615000e-01 -1.437690133000e-01 -1.663081026079e-03  1.041633611104e-03 -5.020629961373e-04
3
step 1132
H  7.975331138000e-01  3.320550471000e-01 -1.682770848000e-01  1.384221005752e-04  1.894290465278e-04 -9.726446945372e-05
O -2.375625000000e-02 -1.118795371000e-01  5.389320590000e-02  1.225445631039e-04 -1.064202266399e-04  5.166640372183e-05
H -7.474759713000e-01  3.108840451000e-01 -1.463847156000e-01 -2.202325095883e-03  1.419786709800e-03 -6.819655064691e-04
3
step 1133
H  7.980501776000e-01  3.329585438000e-01 -1.687383461000e-01  9.683985286553e-05  2.235121144951e-04 -1.135482068378e-04
O -2.314607550000e-02 -1.123986111000e-01  5.414465790000e-02  1.533002557126e-04 -1.290405117059e-04  6.241693346999e-05
H -7.581980734000e-01  3.178696814000e-01 -1.497367332000e-01 -2.648997616196e-03  1.744677306614e-03 -8.366806830404e-04
3
step 1134
H  7.983805366000e-01  3.340109491000e-01 -1.692707185000e-01  5.342133599466e-05  2.577145365983e-04 -1.298786555662e-04
O -2.241475550000e-02 -1.130087403000e-01  5.443940180000e-02  1.777204428339e-04 -1.479439148982e-04  7.140907067644e-05
H -7.706567271000e-01  3.261513063000e-01 -1.537063117000e-01 -2.993272982114e-03  2.010411640292e-03 -9.634087615040e-04
3
step 1135
H  7.985176551000e-01  3.352137431000e-01 -1.698748837000e-01  8.811782689921e-06  2.924231955818e-04 -1.464490330309e-04
O -2.159088570000e-02 -1.136932336000e-01  5.476954190000e-02  1.956260544104e-04 -1.630543514405e-04  7.860674992310e-05
H -7.843915020000e-01  3.354623214000e-01 -1.581672969000e-01 -3.232952693291e-03  2.215400816615e-03 -1.061384903590e-03
3
step 1136
H  7.984576464000e-01  3.365698758000e-01 -1.705522596000e-01 -3.642790980469e-05  3.279197033945e-04 -1.634008034344e-04
O -2.070287780000e-02 -1.144355906000e-01  5.512727100000e-02  2.072203366713e-04 -1.745014145734e-04  8.407056934018e-05
H -7.989475365000e-01  3.455377583000e-01 -1.629942417000e-01 -3.371825049356e-03  2.361443636020e-03 -1.131444725380e-03
3
step 1137
H  7.981988831000e-01  3.380832914000e-01 -1.713047657000e-01 -8.182701236138e-05  3.643767123692e-04 -1.808217762421e-04
O -1.977754920000e-02 -1.152202545000e-01  5.550522370000e-02  2.129684603732e-04 -1.825531402899e-04  8.792619108335e-05
H -8.138975508000e-01  3.561267598000e-01 -1.680683039000e-01 -3.417748325510e-03  2.452652269248e-03 -1.175518320975e-03
3
step 1138
H  7.977415975000e-01  3.397584508000e-01 -1.721345885000e-01 -1.270052747985e-04  4.018603835783e-04 -1.987472672233e-04
O -1.883924090000e-02 -1.160330703000e-01  5.589669250000e-02  2.134861979623e-04 -1.875545544228e-04  9.033578611614e-05
H -8.288554491000e-01  3.670003421000e-01 -1.732809263000e-01 -3.380880682725e-03  2.494459018471e-03 -1.196162957066e-03
3
step 1139
H  7.970874898000e-01  3.415998772000e-01 -1.730439564000e-01 -1.716693193389e-04  4.403376227726e-04 -2.171635952884e-04
O -1.790938170000e-02 -1.168615003000e-01  5.629573090000e-02  2.094513873150e-04 -1.898790643236e-04  9.147537561967e-05
H -8.434828433000e-01  3.779551846000e-01 -1.785356449000e-01 -3.272276519036e-03  2.492828075358e-03 -1.196191594562e-03
3
step 1140
H  7.962393596000e-01  3.436117419000e-01 -1.740349361000e-01 -2.156061451774e-04  4.796866805970e-04 -2.360132934621e-04
O -1.700638100000e-02 -1.176946573000e-01  5.669717200000e-02  2.015415097675e-04 -1.898939841619e-04  9.151865869238e-05
H -8.574903721000e-01  3.888144949000e-01 -1.837485179000e-01 -3.102902263030e-03  2.453701512365e-03 -1.178410790359e-03
3
step 1141
H  7.952007711000e-01  3.457975026000e-01 -1.751092532000e-01 -2.586746720780e-04  5.197096360710e-04 -2.552011426411e-04
O -1.614573930000e-02 -1.185232180000e-01  5.709658920000e-02  1.903943975514e-04 -1.879387905417e-04  9.062648527046e-05
H -8.706356120000e-01  3.994269501000e-01 -1.888476408000e-01 -2.883022502942e-03  2.382651793126e-03 -1.145454407881e-03
3
step 1142
H  7.939757583000e-01  3.481595988000e-01 -1.762681413000e-01 -3.007962966276e-04  5.601453600263e-04 -2.746005390379e-04
O -1.534028440000e-02 -1.193392656000e-01  5.749022310000e-02  1.765869510830e-04 -1.843135486554e-04  8.894111034449e-05
H -8.827190246000e-01  4.096645209000e-01 -1.937721203000e-01 -2.621872399302e-03  2.284693816309e-03 -1.099692895868e-03
3
step 1143
H  7.925685733000e-01  3.506992031000e-01 -1.775122181000e-01 -3.419448314016e-04  6.006821677148e-04 -2.940597427770e-04
O -1.460046830000e-02 -1.201361025000e-01  5.787489190000e-02  1.606267191277e-04 -1.792749263472e-04  8.658411871235e-05
H -8.935790014000e-01  4.194197689000e-01 -1.984707950000e-01 -2.327534340288e-03  2.164211184921e-03 -1.043197931472e-03
3
step 1144
H  7.909834794000e-01  3.534160273000e-01 -1.788413890000e-01 -3.821360144524e-04  6.409697080550e-04 -3.134077379538e-04
O -1.393467770000e-02 -1.209080583000e-01  5.824790030000e-02  1.429519490820e-04 -1.730372043101e-04  8.365685008490e-05
H -9.030867308000e-01  4.286030245000e-01 -2.029009003000e-01 -2.006948688216e-03  2.024958327269e-03 -9.777435492933e-04
3
step 1145
H  7.892245909000e-01  3.563081784000e-01 -1.802547756000e-01 -4.214170553667e-04  6.806296689816e-04 -3.324595853098e-04
O -1.334952940000e-02 -1.216503104000e-01  5.860695340000e-02  1.239367522358e-04 -1.657761568897e-04  8.024227777884e-05
H -9.111413378000e-01  4.371397034000e-01 -2.070267990000e-01 -1.666005346393e-03  1.870108730450e-03 -9.048293485027e-04
3
step 1146
H  7.872957578000e-01  3.593720577000e-01 -1.817506647000e-01 -4.598545037543e-04  7.192657057200e-04 -3.510213406596e-04
O -1.285013630000e-02 -1.223587265000e-01  5.895008160000e-02  1.038987831008e-04 -1.576344047589e-04  7.640761877424e-05
H -9.176655521000e-01  4.449679066000e-01 -2.108188493000e-01 -1.309677630836e-03  1.702327391168e-03 -8.257152280841e-04
3
step 1147
H  7.852005122000e-01  3.626023036000e-01 -1.833264808000e-01 -4.975228810995e-04  7.564720343213e-04 -3.688943745130e-04
O -1.244033560000e-02 -1.230297321000e-01  5.927557850000e-02  8.310786037120e-05 -1.487271561303e-04  7.220713575524e-05
H -9.226020190000e-01  4.520363705000e-01 -2.142524390000e-01 -9.421707281530e-04  1.523852244036e-03 -7.414598931845e-04
3
step 1148
H  7.829420519000e-01  3.659917667000e-01 -1.849787728000e-01 -5.344944782244e-04  7.918408047312e-04 -3.858790060433e-04
O -1.212287890000e-02 -1.236602029000e-01  5.958194930000e-02  6.179454674514e-05 -1.391478062664e-04  6.768477916477e-05
H -9.259102668000e-01  4.583027796000e-01 -2.173071907000e-01 -5.670686449788e-04  1.336575553318e-03 -6.529590643443e-04
3
step 1149
H  7.805232766000e-01  3.695315164000e-01 -1.867032174000e-01 -5.708280648476e-04  8.249688202030e-04 -4.017778856486e-04
O -1.189958600000e-02 -1.242473818000e-01  5.986787210000e-02  4.015816193805e-05 -1.289732078763e-04  6.287670127047e-05
H -9.275643035000e-01  4.637324291000e-01 -2.199663304000e-01 -1.874726781531e-04  1.142121122182e-03 -5.609817120432e-04
3
step 1150
H  7.779468696000e-01  3.732108750000e-01 -1.884946366000e-01 -6.065587601842e-04  8.554631642340e-04 -4.163988061343e-04
O -1.177146430000e-02 -1.247888172000e-01  6.013216860000e-02  1.837415575242e-05 -1.182685895425e-04  5.781355082113e-05
H -9.275507962000e-01  4.682972132000e-01 -2.222162098000e-01  1.938708204496e-04  9.419165515197e-04 -4.662040560136e-04
3
step 1151
H  7.752154234000e-01  3.770174736000e-01 -1.903470255000e-01 -6.416874418719e-04  8.829458218758e-04 -4.295570339383e-04
O -1.173879810000e-02 -1.252823225000e-01  6.037378490000e-02 -3.399167938647e-06 -1.070920124741e-04  5.252263514346e-05
H -9.258677855000e-01  4.719749195000e-01 -2.240459725000e-01  5.744529730487e-04  7.372602238087e-04 -3.692412196154e-04
3
step 1152
H  7.723316136000e-01  3.809373265000e-01 -1.922535893000e-01 -6.761749041955e-04  9.070585798769e-04 -4.410777729151e-04
O -1.180120960000e-02 -1.257259542000e-01  6.059178180000e-02 -2.501395006313e-05 -9.549898724617e-05  4.703007766764e-05
H -9.225238932000e-01  4.747488042000e-01 -2.254473530000e-01  9.518901663398e-04  5.293896079942e-04 -2.706796064338e-04
3
step 1153
H  7.692983756000e-01  3.849549301000e-01 -1.942067934000e-01 -7.099336119517e-04  9.274673417348e-04 -4.507982944357e-04
O -1.195768930000e-02 -1.261180117000e-01  6.078533410000e-02 -4.632668773955e-05 -8.354682999016e-05  4.136289317452e-05
H -9.175380183000e-01  4.766074836000e-01 -2.264146262000e-01  1.323819237802e-03  3.195455830093e-04 -1.711074713208e-04
3
step 1154
H  7.661191513000e-01  3.890533753000e-01 -1.961984193000e-01 -7.428195183065e-04  9.438653548415e-04 -4.585696012419e-04
O -1.220660360000e-02 -1.264570529000e-01  6.095373870000e-02 -6.719247935157e-05 -7.129881745922e-05  3.555095333800e-05
H -9.109394621000e-01  4.775450726000e-01 -2.269446743000e-01  1.687797580431e-03  1.090357830931e-04 -7.114498405241e-05
3
step 1155
H  7.627981366000e-01  3.932144741000e-01 -1.982196283000e-01 -7.746293724596e-04  9.559767621736e-04 -4.642581690082e-04
O -1.254567490000e-02 -1.267419309000e-01  6.109643210000e-02 -8.745888565620e-05 -5.882878548327e-05  2.962920367406e-05
H -9.027684983000e-01  4.775616301000e-01 -2.270371992000e-01  2.041202630386e-03 -1.006960414163e-04  2.852265813849e-05
3
step 1156
H  7.593405517000e-01  3.974189033000e-01 -2.002610335000e-01 -8.050969256902e-04  9.635598294384e-04 -4.677475507734e-04
O -1.297193570000e-02 -1.269718498000e-01  6.121301690000e-02 -1.069598777415e-04 -4.622583255776e-05  2.363989877391e-05
H -8.930773774000e-01  4.766639052000e-01 -2.266950792000e-01  2.381131898589e-03 -3.079981812208e-04  1.271110346943e-04
3
step 1157
H  7.557529225000e-01  4.016463598000e-01 -2.023127772000e-01 -8.338918251683e-04  9.664097973960e-04 -4.689397848168e-04
O -1.348165560000e-02 -1.271464423000e-01  6.130329930000e-02 -1.255095427198e-04 -3.359935254647e-05  1.763502037828e-05
H -8.819317725000e-01  4.748664104000e-01 -2.259248804000e-01  2.704301329320e-03 -5.109328994597e-04  2.236991929952e-04
3
step 1158
H  7.520433603000e-01  4.058757284000e-01 -2.043646154000e-01 -8.606190060075e-04  9.643626986685e-04 -4.677572779229e-04
O -1.407024030000e-02 -1.272658698000e-01  6.136733690000e-02 -1.428956888583e-04 -2.108464333400e-05  1.167892400314e-05
H -8.694126718000e-01  4.721928514000e-01 -2.247375401000e-01  3.006942420078e-03 -7.071916619782e-04  3.171890667641e-04
3
step 1159
H  7.482218478000e-01  4.100852711000e-01 -2.064060113000e-01 -8.848209584958e-04  9.572987540146e-04 -4.641444509511e-04
O -1.473210220000e-02 -1.273309490000e-01  6.140549880000e-02 -1.588732587262e-04 -8.848794310975e-06  5.851145551454e-06
H -8.556187258000e-01  4.686779423000e-01 -2.231492334000e-01  3.284700397333e-03 -8.940041738525e-04  4.062617724598e-04
3
step 1160
H  7.443005000000e-01  4.142528249000e-01 -2.084262344000e-01 -9.059832818950e-04  9.451455309101e-04 -4.580692472757e-04
O -1.546050280000e-02 -1.273433036000e-01  6.141853890000e-02 -1.731579023284e-04  2.903129023797e-06  2.493222006629e-07
H -8.406690304000e-01  4.643696309000e-01 -2.211824388000e-01  3.532539125417e-03 -1.068044220765e-03  4.893320909706e-04
3
step 1161
H  7.402938010000e-01  4.183560176000e-01 -2.104144676000e-01 -9.235418518148e-04  9.278817420734e-04 -4.495249886236e-04
O -1.624736640000e-02 -1.273055444000e-01  6.140768060000e-02 -1.854204370181e-04  1.392198731082e-05 -5.007946133233e-06
H -8.247063059000e-01  4.593317383000e-01 -2.188672033000e-01  3.744663321322e-03 -1.225339683731e-03  5.645046405895e-04
3
step 1162
H  7.362188022000e-01  4.223725000000e-01 -2.123599219000e-01 -9.368935667013e-04  9.055409205726e-04 -4.385320754966e-04
O -1.708307350000e-02 -1.272214755000e-01  6.137471550000e-02 -1.952833963705e-04  2.390963518967e-05 -9.778692434462e-06
H -8.079003615000e-01  4.536469713000e-01 -2.162425913000e-01  3.914477854262e-03 -1.361201020776e-03  6.295387943673e-04
3
step 1163
H  7.320952655000e-01  4.262801934000e-01 -2.142519588000e-01 -9.454106917259e-04  8.782148846653e-04 -4.251396327426e-04
O -1.795624550000e-02 -1.270963168000e-01  6.132210960000e-02 -2.023216884102e-04  3.251656264813e-05 -1.389632555454e-05
H -7.904516299000e-01  4.474201880000e-01 -2.133582572000e-01  4.034614051940e-03 -1.470190581625e-03  6.818334083048e-04
3
step 1164
H  7.279457354000e-01  4.300575521000e-01 -2.160802190000e-01 -9.484588686389e-04  8.460569192349e-04 -4.094269037185e-04
O -1.885354300000e-02 -1.269369307000e-01  6.125311200000e-02 -2.060699778236e-04  3.934435880672e-05 -1.717061298346e-05
H -7.725944018000e-01  4.407816789000e-01 -2.102760273000e-01  4.097061963272e-03 -1.546163413272e-03  7.184461019530e-04
3
step 1165
H  7.237955248000e-01  4.336838387000e-01 -2.178347574000e-01 -9.454189104359e-04  8.092842989983e-04 -3.915042879145e-04
O -1.975951550000e-02 -1.267520236000e-01  6.117185360000e-02 -2.060394799188e-04  4.395558077015e-05 -1.939221531042e-05
H -7.545992032000e-01  4.338900752000e-01 -2.070713041000e-01  4.093450960141e-03 -1.582418524471e-03  7.361651744108e-04
3
step 1166
H  7.196725966000e-01  4.371394089000e-01 -2.195061810000e-01 -9.357120060104e-04  7.681797649486e-04 -3.715138254829e-04
O -2.065654610000e-02 -1.265522858000e-01  6.108341530000e-02 -2.017465981214e-04  4.589384787036e-05 -2.034223967419e-05
H -7.367735742000e-01  4.269343062000e-01 -2.038340188000e-01  4.015523670810e-03 -1.572007453042e-03  7.316560966593e-04
3
step 1167
H  7.156073288000e-01  4.404059994000e-01 -2.210857876000e-01 -9.188280468207e-04  7.230912638061e-04 -3.496288178425e-04
O -2.152495250000e-02 -1.263504173000e-01  6.099384340000e-02 -1.927560516331e-04  4.471688563449e-05 -1.980815151472e-05
H -7.194602991000e-01  4.201338073000e-01 -2.006687535000e-01  3.855850642011e-03 -1.508250143053e-03  7.017072135077e-04
3
step 1168
H  7.116321483000e-01  4.434670107000e-01 -2.225657007000e-01 -8.943559373820e-04  6.744293151058e-04 -3.260523100975e-04
O -2.234330900000e-02 -1.261609788000e-01  6.091007880000e-02 -1.787402210988e-04  4.004446673606e-05 -1.760685369816e-05
H -7.030319312000e-01  4.137359635000e-01 -1.976935439000e-01  3.608812383367e-03 -1.385496194828e-03  6.435940180286e-04
3
step 1169
H  7.077810302000e-01  4.463077719000e-01 -2.239389948000e-01 -8.620139697540e-04  6.226615945283e-04 -3.010142478569e-04
O -2.308906620000e-02 -1.259999976000e-01  6.083976990000e-02 -1.595530667161e-04  3.162091524424e-05 -1.361476845803e-05
H -6.878804298000e-01  4.080096557000e-01 -1.950368135000e-01  3.271811115157e-03 -1.200125554599e-03  5.555598043902e-04
3
step 1170
H  7.040888665000e-01  4.489157760000e-01 -2.251998056000e-01 -8.216772634269e-04  5.683048934595e-04 -2.747673907351e-04
O -2.373952040000e-02 -1.258842716000e-01  6.079093920000e-02 -1.353102583715e-04  1.938699519541e-05 -7.802202390541e-06
H -6.744010808000e-01  4.032339468000e-01 -1.928319706000e-01  2.846569658174e-03 -9.516956096364e-04  4.373674550388e-04
3
step 1171
H  7.005907255000e-01  4.512808745000e-01 -2.263434197000e-01 -7.734014295383e-04  5.119132434582e-04 -2.475814157245e-04
O -2.427313450000e-02 -1.258303466000e-01  6.077149470000e-02 -1.064593683604e-04  3.548864564298e-06 -2.663218571652e-07
H -6.629707675000e-01  3.996815910000e-01 -1.912095136000e-01  2.340261222949e-03 -6.440285857468e-04  2.908229469272e-04
3
step 1172
H  6.973210123000e-01  4.533954085000e-01 -2.273663324000e-01 -7.174375912744e-04  4.540639974724e-04 -2.197360972204e-04
O -2.467112130000e-02 -1.258532163000e-01  6.078860870000e-02 -7.381819946428e-05 -1.537516768143e-05  8.746320984955e-06
H -6.539220047000e-01  3.975982039000e-01 -1.902870473000e-01  1.766126324947e-03 -2.859345423419e-04  1.201246329747e-04
3
step 1173
H  6.943125977000e-01  4.552542818000e-01 -2.282662786000e-01 -6.542373708620e-04  3.953417946701e-04 -1.915135042744e-04
O -2.491910020000e-02 -1.259648910000e-01  6.084803170000e-02 -3.855930744722e-05 -3.655145557397e-05  1.883794148731e-05
H -6.475158110000e-01  3.971794450000e-01 -1.901583312000e-01  1.143229720109e-03  1.087619921747e-04 -6.812072276259e-05
3
step 1174
H  6.915959348000e-01  4.568549517000e-01 -2.290422221000e-01 -5.844462387221e-04  3.363208796998e-04 -1.631894070606e-04
O -2.500854480000e-02 -1.261730695000e-01  6.095345510000e-02 -2.128563604603e-06 -5.888582278196e-05  2.948548138319e-05
H -6.439178700000e-01  3.985499545000e-01 -1.908831557000e-01  4.951624657667e-04  5.221134761784e-04 -2.653225571099e-04
3
step 1175
H  6.891982460000e-01  4.581973468000e-01 -2.296943108000e-01 -5.088876200018e-04  2.775465763101e-04 -1.350243953658e-04
O -2.493772680000e-02 -1.264801871000e-01  6.110605220000e-02  3.389570149252e-05 -8.113473917559e-05  4.009372414356e-05
H -6.431827606000e-01  4.017483374000e-01 -1.924801066000e-01 -1.522059605345e-04  9.338321429465e-04 -4.617600422876e-04
3
step 1176
H  6.871427788000e-01  4.592836966000e-01 -2.302237889000e-01 -4.285335714241e-04  2.195170717993e-04 -1.072551387827e-04
O -2.471193150000e-02 -1.268830605000e-01  6.130430580000e-02  6.797511720781e-05 -1.020511595038e-04  5.006528657169e-05
H -6.452497886000e-01  4.067217002000e-01 -1.949239093000e-01 -7.734914376685e-04  1.323621723643e-03 -6.477006486821e-04
3
step 1177
H  6.854482494000e-01  4.601182892000e-01 -2.306328753000e-01 -3.444664120715e-04  1.626685200326e-04 -8.008732446995e-05
O -2.434289250000e-02 -1.273732128000e-01  6.154416180000e-02  9.877532249605e-05 -1.205304626341e-04  5.887075667069e-05
H -6.499514025000e-01  4.133310401000e-01 -1.981479828000e-01 -1.346435198674e-03  1.673506999062e-03 -8.145194801205e-04
3
step 1178
H  6.841284342000e-01  4.607071705000e-01 -2.309246142000e-01 -2.578333147844e-04  1.073650491727e-04 -5.369101298704e-05
O -2.384757180000e-02 -1.279377943000e-01  6.181947000000e-02  1.252843281256e-04 -1.357213949955e-04  6.610209697421e-05
H -6.570321267000e-01  4.213661668000e-01 -2.020515779000e-01 -1.853827557413e-03  1.969607491407e-03 -9.555528952341e-04
3
step 1179
H  6.831920106000e-01  4.610578155000e-01 -2.311027128000e-01 -1.697969070521e-04  5.389256793564e-05 -2.819791396087e-05
O -2.324655870000e-02 -1.285608788000e-01  6.212260570000e-02  1.468657783073e-04 -1.470814074539e-04  7.149915651412e-05
H -6.661738119000e-01  4.305666125000e-01 -2.065098017000e-01 -2.284403894230e-03  2.203026405993e-03 -1.066527676792e-03
3
step 1180
H  6.826425814000e-01  4.611787717000e-01 -2.311713675000e-01 -8.149191937432e-05  2.456374942615e-06 -3.700449024887e-06
O -2.256238390000e-02 -1.292248691000e-01  6.244514230000e-02  1.632487892971e-04 -1.543751788702e-04  7.494885717733e-05
H -6.770224084000e-01  4.406443333000e-01 -2.113845111000e-01 -2.632729785993e-03  2.369835560563e-03 -1.145555647029e-03
3
step 1181
H  6.824788939000e-01  4.610793106000e-01 -2.311350945000e-01  6.014294715176e-06 -4.681575126429e-05  1.974647005066e-05
O -2.181800690000e-02 -1.299117797000e-01  6.277846560000e-02  1.744714926182e-04 -1.576303365432e-04  7.646393385036e-05
H -6.892122117000e-01  4.513044867000e-01 -2.165342900000e-01 -2.898346497955e-03  2.470370532634e-03 -1.192796238862e-03
3
step 1182
H  6.826952111000e-01  4.607690981000e-01 -2.309985708000e-01  9.174889684736e-05 -9.386899490643e-05  4.212297300311e-05
O -2.103562490000e-02 -1.306042552000e-01  6.311426030000e-02  1.808023265141e-04 -1.570712631397e-04  7.615140803301e-05
H -7.023851577000e-01  4.622619654000e-01 -2.218223907000e-01 -3.084549175150e-03  2.508166203992e-03 -1.209945779402e-03
3
step 1183
H  6.832817670000e-01  4.602578851000e-01 -2.307664863000e-01  1.748505406193e-04 -1.387141344700e-04  6.344049197577e-05
O -2.023584830000e-02 -1.312862734000e-01  6.344484860000e-02  1.826593252914e-04 -1.530494799248e-04  7.417957129652e-05
H -7.162043768000e-01  4.732528599000e-01 -2.271222412000e-01 -3.197119163517e-03  2.488832045320e-03 -1.199697582875e-03
3
step 1184
H  6.842252871000e-01  4.595552433000e-01 -2.304434180000e-01  2.545774851702e-04 -1.814178841218e-04  8.373694365340e-05
O -1.943721610000e-02 -1.319435552000e-01  6.376338830000e-02  1.805401140120e-04 -1.459825823862e-04  7.074889525562e-05
H -7.303623963000e-01  4.840411499000e-01 -2.323206624000e-01 -3.243217162681e-03  2.419065939563e-03 -1.165268574869e-03
3
step 1185
H  6.855095147000e-01  4.586703398000e-01 -2.300337240000e-01  3.303064478538e-04 -2.220932031282e-04  1.030719251109e-04
O -1.865598410000e-02 -1.325637327000e-01  6.406395560000e-02  1.749683131790e-04 -1.363068706619e-04  6.606921299226e-05
H -7.445850082000e-01  4.944215376000e-01 -2.373192327000e-01 -3.230528292696e-03  2.305896643595e-03 -1.110035552707e-03
3
step 1186
H  6.871157212000e-01  4.576117579000e-01 -2.295414598000e-01  4.015268355990e-04 -2.608884350904e-04  1.215214571300e-04
O -1.790610940000e-02 -1.331363446000e-01  6.434154450000e-02  1.664562208573e-04 -1.244446803968e-04  6.034372045441e-05
H -7.586319904000e-01  5.042195097000e-01 -2.420343227000e-01 -3.166664098338e-03  2.156162946900e-03 -1.037284542219e-03
3
step 1187
H  6.890231818000e-01  4.563873664000e-01 -2.289703183000e-01  4.678316394211e-04 -2.979766391627e-04  1.391728326497e-04
O -1.719936480000e-02 -1.336527189000e-01  6.459200930000e-02  1.554812033085e-04 -1.107843707778e-04  5.375895218968e-05
H -7.722957417000e-01  5.132896129000e-01 -2.463962661000e-01 -3.058782824586e-03  1.976193356719e-03 -9.500562009772e-04
3
step 1188
H  6.912096059000e-01  4.550042343000e-01 -2.283235910000e-01  5.289065553725e-04 -3.335455429312e-04  1.561198400411e-04
O -1.654553000000e-02 -1.341057926000e-01  6.481197640000e-02  1.424730012443e-04 -9.567028655443e-05  4.647986748923e-05
H -7.853986802000e-01  5.215127134000e-01 -2.503480413000e-01 -2.913381933055e-03  1.771640585668e-03 -8.510659989833e-04
3
step 1189
H  6.936515188000e-01  4.534685877000e-01 -2.276041502000e-01  5.845188952266e-04 -3.677883089354e-04  1.724583474935e-04
O -1.595261710000e-02 -1.344899071000e-01  6.499874370000e-02  1.278090765186e-04 -7.940004741875e-05  3.864872591468e-05
H -7.977900625000e-01  5.287928234000e-01 -2.538437447000e-01 -2.736216070303e-03  1.547427659305e-03 -7.426784289283e-04
3
step 1190
H  6.963245935000e-01  4.517858053000e-01 -2.268144486000e-01  6.345070731117e-04 -4.008952885323e-04  1.882823490743e-04
O -1.542710280000e-02 -1.348006038000e-01  6.515018230000e-02  1.118154120579e-04 -6.222654554502e-05  3.038626205254e-05
H -8.093426642000e-01  5.350538893000e-01 -2.568470458000e-01 -2.532298644844e-03  1.307767905240e-03 -6.269167927633e-04
3
step 1191
H  6.992039411000e-01  4.499604473000e-01 -2.259565356000e-01  6.787714360265e-04 -4.330469093746e-04  2.036806004517e-04
O -1.497414670000e-02 -1.350344370000e-01  6.526464670000e-02  9.477063950025e-05 -4.436270403072e-05  2.179414472774e-05
H -8.199496129000e-01  5.402367931000e-01 -2.593297462000e-01 -2.305955847562e-03  1.056229176092e-03 -5.054941887044e-04
3
step 1192
H  7.022643628000e-01  4.479963135000e-01 -2.250320875000e-01  7.172661731194e-04 -4.644079570545e-04  2.187338488514e-04
O -1.459778720000e-02 -1.351888114000e-01  6.534089770000e-02  7.691176669437e-05 -2.598730495843e-05  1.295783389671e-05
H -8.295215420000e-01  5.442967027000e-01 -2.612705066000e-01 -2.060907897182e-03  7.958194237201e-04 -3.798546733487e-04
3
step 1193
H  7.054805688000e-01  4.458965223000e-01 -2.240424471000e-01  7.499940041525e-04 -4.951222498544e-04  2.335123052773e-04
O -1.430110990000e-02 -1.352618458000e-01  6.537803770000e-02  5.844032116270e-05 -7.251132858689e-06  3.949506105873e-06
H -8.379841337000e-01  5.472008219000e-01 -2.626537652000e-01 -1.800360314575e-03  5.290781746528e-04 -2.512172166876e-04
3
step 1194
H  7.088273841000e-01  4.436636150000e-01 -2.229886762000e-01  7.770010188104e-04 -5.253092973251e-04  2.480740126546e-04
O -1.408638960000e-02 -1.352522643000e-01  6.537545890000e-02  3.952851641930e-05  1.171725665155e-05 -5.169216604074e-06
H -8.452760721000e-01  5.489265415000e-01 -2.634688495000e-01 -1.527095914713e-03  2.581658434243e-04 -1.206186149266e-04
3
step 1195
H  7.122799222000e-01  4.412996641000e-01 -2.218716096000e-01  7.983715297211e-04 -5.550628238434e-04  2.624641647460e-04
O -1.395520510000e-02 -1.351593108000e-01  6.533280310000e-02  2.032520802048e-05  3.080619333610e-05 -1.434475720333e-05
H -8.513473913000e-01  5.494599705000e-01 -2.637092704000e-01 -1.243564343983e-03 -1.505232048081e-05  1.104616561370e-05
3
step 1196
H  7.158137458000e-01  4.388063907000e-01 -2.206919139000e-01  8.142254395440e-04 -5.844490956152e-04  2.767143016510e-04
O -1.390852850000e-02 -1.349826865000e-01  6.524993130000e-02  9.614930752866e-07  4.991592363115e-05 -2.352924787718e-05
H -8.561582115000e-01  5.487948222000e-01 -2.633721871000e-01 -9.519686920454e-04 -2.889282188773e-04  1.429864603503e-04
3
step 1197
H  7.194050177000e-01  4.361852874000e-01 -2.194501478000e-01  8.247135648068e-04 -6.135075697621e-04  2.908426663459e-04
O -1.394679130000e-02 -1.347225083000e-01  6.512690420000e-02 -1.844370395723e-05  6.895399390603e-05 -3.267830850598e-05
H -8.596778457000e-01  5.469316276000e-01 -2.624580295000e-01 -6.543495804796e-04 -5.619571604698e-04  2.744804489665e-04
3
step 1198
H  7.230306205000e-01  4.334377301000e-01 -2.181468181000e-01  8.300175627692e-04 -6.422522976269e-04  3.048548903383e-04
O -1.406992500000e-02 -1.343792863000e-01  6.496397110000e-02 -3.777831059035e-05  8.783100854843e-05 -4.174903084138e-05
H -8.618842709000e-01  5.438772671000e-01 -2.609702732000e-01 -3.526695302654e-04 -8.327086417621e-04  4.048418874637e-04
3
step 1199
H  7.266683064000e-01  4.305650884000e-01 -2.167824343000e-01  8.303474356413e-04 -6.706726012861e-04  3.187443182102e-04
O -1.427738040000e-02 -1.339539198000e-01  6.476156820000e-02 -5.693184505541e-05  1.064565343225e-04 -5.069801296392e-05
H -8.627639739000e-01  5.396447899000e-01 -2.589153532000e-01 -4.889466892394e-05 -1.099760976773e-03  5.333887143347e-04
3
step 1200
H  7.302967958000e-01  4.275688317000e-01 -2.153575614000e-01  8.259358762205e-04 -6.987343900061e-04  3.324927435535e-04
O -1.456812220000e-02 -1.334477102000e-01  6.452032470000e-02 -7.578958823994e-05  1.247349087352e-04 -5.947936174338e-05
H -8.623121367000e-01  5.342535172000e-01 -2.563027139000e-01  2.549186850519e-04 -1.361633362403e-03  6.594104088463e-04
3
step 1201
H  7.338958772000e-01  4.244506279000e-01 -2.138728684000e-01  8.170384278778e-04 -7.263831314122e-04  3.460718168468e-04
O -1.494059730000e-02 -1.328623939000e-01  6.424107830000e-02 -9.422679676510e-05  1.425612175311e-04 -6.804274558048e-05
H -8.605332404000e-01  5.277294563000e-01 -2.531450077000e-01  5.565316142777e-04 -1.616718853442e-03  7.821358155668e-04
3
step 1202
H  7.374465071000e-01  4.212124236000e-01 -2.123291682000e-01  8.039318344164e-04 -7.535470420662e-04  3.594446544579e-04
O -1.539267880000e-02 -1.322001905000e-01  6.392489860000e-02 -1.121026052331e-04  1.598173407524e-04 -7.633150657192e-05
H -8.574420593000e-01  5.201059903000e-01 -2.494584271000e-01  8.534276393518e-04 -1.863217913516e-03  9.007012797237e-04
3
step 1203
H  7.409308957000e-01  4.178565148000e-01 -2.107274527000e-01  7.869110734736e-04 -7.801391078620e-04  3.725667985596e-04
O -1.592158090000e-02 -1.314638699000e-01  6.357311920000e-02 -1.292532153940e-04  1.763675691216e-04 -8.428055783710e-05
H -8.530650956000e-01  5.114248740000e-01 -2.452631824000e-01  1.142706762405e-03 -2.099066238545e-03  1.014116094796e-03
3
step 1204
H  7.443325810000e-01  4.143856096000e-01 -2.090689237000e-01  7.662871258589e-04 -8.060587250244e-04  3.853870399152e-04
O -1.652374330000e-02 -1.306568393000e-01  6.318737920000e-02 -1.454844407980e-04  1.920540055875e-04 -9.181420770837e-05
H -8.474425009000e-01  5.017375548000e-01 -2.405841354000e-01  1.420969500098e-03 -2.321858900516e-03  1.121226208544e-03
3
step 1205
H  7.476364943000e-01  4.108028843000e-01 -2.073550212000e-01  7.423842832182e-04 -8.311931994067e-04  3.978481812400e-04
O -1.719468100000e-02 -1.297832504000e-01  6.276967470000e-02 -1.605635840764e-04  2.066917428885e-04 -9.884382393524e-05
H -8.406305254000e-01  4.911068323000e-01 -2.354515952000e-01  1.684191587147e-03 -2.528771890346e-03  1.220676717720e-03
3
step 1206
H  7.508290115000e-01  4.071120332000e-01 -2.055874478000e-01  7.155392155434e-04 -8.554178287693e-04  4.098870372012e-04
O -1.792879750000e-02 -1.288481285000e-01  6.232242020000e-02 -1.742109668257e-04  2.200638628481e-04 -1.052655161727e-04
H -8.327045360000e-01  4.796088662000e-01 -2.299022802000e-01  1.927592134138e-03 -2.716484177263e-03  1.310874495332e-03
3
step 1207
H  7.538980099000e-01  4.033173238000e-01 -2.037681961000e-01  6.860990879091e-04 -8.785951759862e-04  4.214340595943e-04
O -1.871916030000e-02 -1.278575232000e-01  6.184852090000e-02 -1.860915234849e-04  2.319168104927e-04 -1.109578596089e-04
H -8.237626195000e-01  4.673355175000e-01 -2.239804405000e-01  2.145504061710e-03 -2.881107045276e-03  1.389954122766e-03
3
step 1208
H  7.568329034000e-01  3.994236533000e-01 -2.018995773000e-01  6.544187447180e-04 -9.005733777638e-04  4.324124871306e-04
O -1.955724070000e-02 -1.268186789000e-01  6.135145400000e-02 -1.958075973944e-04  2.419568057946e-04 -1.157801442611e-04
H -8.139297340000e-01  4.543969753000e-01 -2.177391183000e-01  2.331264990101e-03 -3.018134438082e-03  1.455753791326e-03
3
step 1209
H  7.596246746000e-01  3.954366178000e-01 -1.999842560000e-01  6.208600240475e-04 -9.211825015318e-04  4.427365215977e-04
O -2.043262650000e-02 -1.257402161000e-01  6.083535600000e-02 -2.028952062650e-04  2.498488883265e-04 -1.195718447360e-04
H -8.033622673000e-01  4.409245322000e-01 -2.112414811000e-01  2.477158542557e-03 -3.122435832838e-03  1.505811992803e-03
3
step 1210
H  7.622659036000e-01  3.913626016000e-01 -1.980252940000e-01  5.857915565236e-04 -9.402294076055e-04  4.523087360854e-04
O -2.133272890000e-02 -1.246323100000e-01  6.030510890000e-02 -2.068263459767e-04  2.552205877981e-04 -1.221543115110e-04
H -7.922527017000e-01  4.270732729000e-01 -2.045621113000e-01  2.574447640714e-03 -3.188318680411e-03  1.537398291645e-03
3
step 1211
H  7.647507989000e-01  3.872088912000e-01 -1.960262085000e-01  5.495900086414e-04 -9.574910069194e-04  4.610167655612e-04
O -2.224251530000e-02 -1.235068407000e-01  5.976641230000e-02 -2.070206695576e-04  2.576724465641e-04 -1.233358264917e-04
H -7.808338809000e-01  4.130243045000e-01 -1.977880699000e-01  2.613552866144e-03 -3.209693890339e-03  1.547593317963e-03
3
step 1212
H  7.670752366000e-01  3.829838228000e-01 -1.939910446000e-01  5.126433830475e-04 -9.727062571545e-04  4.687293620721e-04
O -2.314431820000e-02 -1.223774790000e-01  5.922582600000e-02 -2.028705272799e-04  2.567979081717e-04 -1.229211336072e-04
H -7.693821146000e-01  3.989859958000e-01 -1.910194858000e-01  2.584441528047e-03 -3.180384475847e-03  1.533436393480e-03
3
step 1213
H  7.692368207000e-01  3.786969673000e-01 -1.919244680000e-01  4.753565906244e-04 -9.855676331992e-04  4.752922305374e-04
O -2.401778760000e-02 -1.212596625000e-01  5.869075840000e-02 -1.937838611957e-04  2.522145740557e-04 -1.207265734873e-04
H -7.582180403000e-01  3.851935072000e-01 -1.843693283000e-01  2.477303691009e-03 -3.094619704925e-03  1.492162150840e-03
3
step 1214
H  7.712349704000e-01  3.743593520000e-01 -1.898318740000e-01  4.381589012678e-04 -9.957134203941e-04  4.805242667917e-04
O -2.484007520000e-02 -1.201704085000e-01  5.816937610000e-02 -1.792492188806e-04  2.436081814076e-04 -1.166013433172e-04
H -7.477038120000e-01  3.719057058000e-01 -1.779619254000e-01  2.283583869928e-03 -2.947743929777e-03  1.421541093550e-03
3
step 1215
H  7.730710463000e-01  3.699837131000e-01 -1.877195130000e-01  4.015131636516e-04 -1.002722297863e-03  4.842148332521e-04
O -2.558635540000e-02 -1.191279046000e-01  5.767040740000e-02 -1.589243079770e-04  2.307884977175e-04 -1.104543150646e-04
H -7.382349344000e-01  3.593984926000e-01 -1.719297562000e-01  1.997384920990e-03 -2.737127126645e-03  1.320317011445e-03
3
step 1216
H  7.747485178000e-01  3.655847648000e-01 -1.855946238000e-01  3.659257243608e-04 -1.006111665516e-03  4.861229407036e-04
O -2.623078450000e-02 -1.181508325000e-01  5.720281630000e-02 -1.327420029254e-04  2.137524238278e-04 -1.022840899948e-04
H -7.302251659000e-01  3.479537494000e-01 -1.664081415000e-01  1.617144525938e-03 -2.463186401917e-03  1.188695609969e-03
3
step 1217
H  7.762731763000e-01  3.611794663000e-01 -1.834655654000e-01  3.319553916794e-04 -1.005341186596e-03  4.859789258669e-04
O -2.674794950000e-02 -1.172574073000e-01  5.677534340000e-02 -1.010173070409e-04  1.927433076045e-04 -9.220704650361e-05
H -7.240836826000e-01  3.378437271000e-01 -1.615277602000e-01  1.147318414045e-03 -2.130328131466e-03  1.028793888023e-03
3
step 1218
H  7.776533814000e-01  3.567872602000e-01 -1.813419364000e-01  3.002162422014e-04 -9.998235158875e-04  4.834897263657e-04
O -2.711476320000e-02 -1.164641811000e-01  5.639593410000e-02 -6.452725866926e-05  1.682889611842e-04 -8.047551452878e-05
H -7.201852520000e-01  3.293117485000e-01 -1.574054078000e-01  5.996387206623e-04 -1.747532357556e-03  8.449197158084e-04
3
step 1219
H  7.789002981000e-01  3.524302456000e-01 -1.792346604000e-01  2.713725149926e-04 -9.889418844593e-04  4.783474742611e-04
O -2.731261240000e-02 -1.157847502000e-01  5.607112100000e-02 -2.453078773671e-05  1.411988497918e-04 -6.747656879809e-05
H -7.188363850000e-01  3.225514820000e-01 -1.541340662000e-01 -6.569629016998e-06 -1.328278838736e-03  6.435373052730e-04
3
step 1220
H  7.800280986000e-01  3.481332622000e-01 -1.771560300000e-01  2.461218222003e-04 -9.720746826616e-04  4.702416687017e-04
O -2.732942640000e-02 -1.152285832000e-01  5.580546250000e-02  1.729741332532e-05  1.125077126699e-04 -5.370520146077e-05
H -7.202427413000e-01  3.176882925000e-01 -1.517739641000e-01 -6.454219130649e-04 -8.896215581868e-04  4.328237197462e-04
3
step 1221
H  7.810540523000e-01  3.439238484000e-01 -1.751196860000e-01  2.251633666903e-04 -9.486263374250e-04  4.588744980120e-04
O -2.716124680000e-02 -1.148002216000e-01  5.560115950000e-02  5.902291708092e-05  8.336856443384e-05 -3.971307628242e-05
H -7.244843205000e-01  3.147666128000e-01 -1.503465276000e-01 -1.286915154774e-03 -4.504609205052e-04  2.218395658763e-04
3
step 1222
H  7.819984503000e-01  3.398320560000e-01 -1.731405271000e-01  2.091536304920e-04 -9.180634371024e-04  4.439788449759e-04
O -2.681293070000e-02 -1.144990445000e-01  5.545794270000e-02  9.867005627136e-05  5.491713663880e-05 -2.604351032986e-05
H -7.315042334000e-01  3.137464148000e-01 -1.498326981000e-01 -1.900349418945e-03 -2.936052316598e-05  1.948138237130e-05
3
step 1223
H  7.828843066000e-01  3.358900910000e-01 -1.712345315000e-01  1.986537394008e-04 -8.799523007553e-04  4.253370371969e-04
O -2.629780830000e-02 -1.143196546000e-01  5.537325880000e-02  1.344513757532e-04  2.814118292112e-05 -1.316877773867e-05
H -7.411138318000e-01  3.145096858000e-01 -1.501760506000e-01 -2.457915635334e-03  3.575612305625e-04 -1.665295355899e-04
3
step 1224
H  7.837368225000e-01  3.321318001000e-01 -1.694185026000e-01  1.940745420659e-04 -8.339943350625e-04  4.027986146875e-04
O -2.563637830000e-02 -1.142527876000e-01  5.534270590000e-02  1.649523294920e-04  3.786343229064e-06 -1.444975373730e-06
H -7.530128757000e-01  3.168753491000e-01 -1.512899590000e-01 -2.937571566620e-03  6.981597522493e-04 -3.303796985920e-04
3
step 1225
H  7.845826074000e-01  3.285920025000e-01 -1.677097355000e-01  1.956255744523e-04 -7.800575789904e-04  3.762961684844e-04
O -2.485434920000e-02 -1.142865213000e-01  5.536061420000e-02  1.892337676019e-04 -1.768368812305e-05  8.906873804258e-06
H -7.668198304000e-01  3.206191177000e-01 -1.530671257000e-01 -3.324619435036e-03  9.849324841617e-04 -4.684821334027e-04
3
step 1226
H  7.854486959000e-01  3.253056995000e-01 -1.661256232000e-01  2.032728418181e-04 -7.182012182214e-04  3.458577464210e-04
O -2.398043800000e-02 -1.144075334000e-01  5.542064780000e-02  2.068452746074e-04 -3.607443213937e-05  1.779434359081e-05
H -7.821058392000e-01  3.254942619000e-01 -1.553895361000e-01 -3.611877079979e-03  1.214851165360e-03 -5.793923994587e-04
3
step 1227
H  7.863614002000e-01  3.223071924000e-01 -1.646832156000e-01  2.167105331873e-04 -6.486905324180e-04  3.116144456064e-04
O -2.304429480000e-02 -1.146022001000e-01  5.551632830000e-02  2.177680407248e-04 -5.141142715841e-05  2.522958835178e-05
H -7.984265181000e-01  3.312499948000e-01 -1.581372524000e-01 -3.798744188223e-03  1.388601258196e-03 -6.634405981834e-04
3
step 1228
H  7.873450789000e-01  3.196291611000e-01 -1.633987584000e-01  2.353488212741e-04 -5.720011417089e-04  2.738026842265e-04
O -2.207480110000e-02 -1.148574227000e-01  5.564142600000e-02  2.223184360066e-04 -6.387507797800e-05  3.129797205201e-05
H -8.153477571000e-01  3.376455852000e-01 -1.611951489000e-01 -3.889658460902e-03  1.509548009004e-03 -7.222357500360e-04
3
step 1229
H  7.884208825000e-01  3.173017448000e-01 -1.622872326000e-01  2.583169936371e-04 -4.888127215242e-04  2.327611846654e-04
O -2.109883850000e-02 -1.151611559000e-01  5.579020950000e-02  2.210416744966e-04 -7.373665687962e-05  3.612765719996e-05
H -8.324640054000e-01  3.444596948000e-01 -1.644573678000e-01 -3.892408807856e-03  1.582700812932e-03 -7.581717531359e-04
3
step 1230
H  7.896055502000e-01  3.153516758000e-01 -1.613619199000e-01  2.844834509315e-04 -3.999920852176e-04  1.889225948091e-04
O -2.014051730000e-02 -1.155026748000e-01  5.595757060000e-02  2.146156032134e-04 -8.130532540334e-05  3.986466074301e-05
H -8.494093121000e-01  3.514954282000e-01 -1.678297318000e-01 -3.816626478409e-03  1.613843497990e-03 -7.740128275097e-04
3
step 1231
H  7.909103303000e-01  3.138015081000e-01 -1.606340154000e-01  3.124915392039e-04 -3.065667498058e-04  1.428003371953e-04
O -1.922078780000e-02 -1.158726397000e-01  5.613905580000e-02  2.037742836891e-04 -8.688957771901e-05  4.265481221636e-05
H -8.658624070000e-01  3.585820601000e-01 -1.712305722000e-01 -3.672609059058e-03  1.608895231210e-03 -7.725886777436e-04
3
step 1232
H  7.923400903000e-01  3.126689822000e-01 -1.601123077000e-01  3.408091684119e-04 -2.096910372185e-04  9.497167792257e-05
O -1.835733640000e-02 -1.162630251000e-01  5.633083290000e-02  1.892532996084e-04 -9.077265306179e-05  4.463213875857e-05
H -8.815474511000e-01  3.655744923000e-01 -1.745904737000e-01 -3.470502204435e-03  1.573494289899e-03 -7.565950544222e-04
3
step 1233
H  7.938926713000e-01  3.119665511000e-01 -1.598029406000e-01  3.677889077402e-04 -1.106072022684e-04  4.605824035394e-05
O -1.756467660000e-02 -1.166669699000e-01  5.652962110000e-02  1.717538102372e-04 -9.319951744179e-05  4.591255709167e-05
H -8.962319564000e-01  3.723513389000e-01 -1.778513577000e-01 -3.219790657820e-03  1.512761602311e-03 -7.284795881097e-04
3
step 1234
H  7.955585246000e-01  3.117010846000e-01 -1.597092629000e-01  3.917342975180e-04 -1.060422939699e-05 -3.294669646821e-06
O -1.685435920000e-02 -1.170785922000e-01  5.673260290000e-02  1.519214048431e-04 -9.437250288251e-05  4.659156972261e-05
H -9.097230826000e-01  3.788123137000e-01 -1.809652275000e-01 -2.929028363876e-03  1.431194928330e-03 -6.903907629547e-04
3
step 1235
H  7.973206461000e-01  3.118737560000e-01 -1.598317714000e-01  4.109681586740e-04  8.902319231056e-05 -5.243872933686e-05
O -1.623524810000e-02 -1.174928015000e-01  5.693733300000e-02  1.303355984708e-04 -9.445287071274e-05  4.674484546389e-05
H -9.218631955000e-01  3.848753895000e-01 -1.838928051000e-01 -2.605739547011e-03  1.332651238152e-03 -6.441697436904e-04
3
step 1236
H  7.991548104000e-01  3.124801056000e-01 -1.601681419000e-01  4.238982007150e-04  1.870130840517e-04 -1.007419756858e-04
O -1.571382300000e-02 -1.179051271000e-01  5.714165600000e-02  1.075066779324e-04 -9.356574827776e-05  4.643055980042e-05
H -9.325252972000e-01  3.904740316000e-01 -1.866022055000e-01 -2.256433105553e-03  1.220383856469e-03 -5.913684906220e-04
3
step 1237
H  8.010300797000e-01  3.135102635000e-01 -1.607133408000e-01  4.290779078304e-04  2.821707068592e-04 -1.476062438509e-04
O -1.529448240000e-02 -1.183115734000e-01  5.734363600000e-02  8.387719653333e-05 -9.180673864714e-05  4.569267688819e-05
H -9.416087114000e-01  3.955546819000e-01 -1.890677318000e-01 -1.886686800957e-03  1.097110163974e-03 -5.332826664641e-04
3
step 1238
H  8.029095703000e-01  3.149493152000e-01 -1.614598094000e-01  4.252572270322e-04  3.733970299689e-04 -1.924815659183e-04
O -1.497983330000e-02 -1.187085063000e-01  5.754150190000e-02  5.982638968692e-05 -8.924888229178e-05  4.456439153915e-05
H -9.490352501000e-01  4.000745848000e-01 -1.912688368000e-01 -1.501268239226e-03  9.650926508456e-04 -4.709908694814e-04
3
step 1239
H  8.047514057000e-01  3.167777732000e-01 -1.623977018000e-01  4.114210516470e-04  4.597103426447e-04 -2.348771093751e-04
O -1.477095570000e-02 -1.190925694000e-01  5.773360850000e-02  3.567622695620e-05 -8.594931250197e-05  4.307146150116e-05
H -9.547459571000e-01  4.039999809000e-01 -1.931892623000e-01 -1.104269862541e-03  8.262225025880e-04 -4.053947762651e-04
3
step 1240
H  8.065098193000e-01  3.189721323000e-01 -1.635151638000e-01  3.868173559993e-04  5.402618688132e-04 -2.743690758472e-04
O -1.466763910000e-02 -1.194606285000e-01  5.791841020000e-02  1.169814517969e-05 -8.195526171940e-05  4.123516491379e-05
H -9.586984562000e-01  4.073046638000e-01 -1.948163513000e-01 -6.992448733723e-04  6.820997027358e-04 -3.372573143947e-04
3
step 1241
H  8.081363535000e-01  3.215054779000e-01 -1.647986411000e-01  3.509696194675e-04  6.143428475872e-04 -3.106043304966e-04
O -1.466858800000e-02 -1.198097406000e-01  5.809444770000e-02 -1.187939104685e-05 -7.730928622320e-05  3.907479609006e-05
H -9.608648847000e-01  4.099688752000e-01 -1.961405218000e-01 -2.893398446013e-04  5.341092684764e-04 -2.672390249732e-04
3
step 1242
H  8.095810720000e-01  3.243481023000e-01 -1.662331894000e-01  3.036808581320e-04  6.813869284853e-04 -3.433016499118e-04
O -1.477159280000e-02 -1.201371439000e-01  5.826034450000e-02 -3.486321918391e-05 -7.205379144852e-05  3.660988246545e-05
H -9.612304012000e-01  4.119785286000e-01 -1.971548972000e-01  1.225795223330e-04  3.834912833839e-04 -1.959313945703e-04
3
step 1243
H  8.107937934000e-01  3.274681348000e-01 -1.678027932000e-01  2.450296525507e-04  7.409698240334e-04 -3.722515621222e-04
O -1.497366790000e-02 -1.204402664000e-01  5.841481220000e-02 -5.708781770375e-05 -6.623511848642e-05  3.386214556932e-05
H -9.597922201000e-01  4.133247173000e-01 -1.978550714000e-01  5.338106477289e-04  2.314062814163e-04 -1.238881576275e-04
3
step 1244
H  8.117252689000e-01  3.308321551000e-01 -1.694906753000e-01  1.753538840383e-04  7.928008945006e-04 -3.973121321091e-04
O -1.527115490000e-02 -1.207167519000e-01  5.855666420000e-02 -7.840695482063e-05 -5.990707748917e-05  3.085717402149e-05
H -9.565591497000e-01  4.140035106000e-01 -1.982390133000e-01  9.416978506416e-04  7.899988583521e-05 -5.165620118531e-05
3
step 1245
H  8.123282740000e-01  3.344057492000e-01 -1.712795783000e-01  9.523048043719e-05  8.367127350951e-04 -4.184037142650e-04
O -1.565978870000e-02 -1.209644992000e-01  5.868483610000e-02 -9.868533722100e-05 -5.313426623729e-05  2.762599139515e-05
H -9.515516434000e-01  4.140160267000e-01 -1.983071027000e-01  1.343519677591e-03 -7.253392775380e-05  2.019409262733e-05
3
step 1246
H  8.125586085000e-01  3.381540317000e-01 -1.731520279000e-01  5.454777921906e-06  8.726515630910e-04 -4.355041208155e-04
O -1.613472710000e-02 -1.211817173000e-01  5.879841280000e-02 -1.177901079497e-04 -4.599561268690e-05  2.420675663960e-05
H -9.448023246000e-01  4.133687832000e-01 -1.980622996000e-01  1.736375211932e-03 -2.218867206105e-04  9.103716479151e-05
3
step 1247
H  8.123760075000e-01  3.420421180000e-01 -1.750905725000e-01 -9.298225643788e-05  9.006664347703e-04 -4.486431868663e-04
O -1.669054230000e-02 -1.213669960000e-01  5.889666370000e-02 -1.355824037195e-04 -3.858795865640e-05  2.064646907407e-05
H -9.363570319000e-01  4.120743482000e-01 -1.975104579000e-01  2.117072056217e-03 -3.675678390692e-04  1.601597565277e-04
3
step 1248
H  8.117449426000e-01  3.460355520000e-01 -1.770779991000e-01 -1.989175791893e-04  9.208983343777e-04 -4.578972623131e-04
O -1.732117680000e-02 -1.215193915000e-01  5.897908520000e-02 -1.519087933743e-04 -3.102983092534e-05  1.700278765717e-05
H -9.262763245000e-01  4.101522834000e-01 -1.966607792000e-01  2.482014086015e-03 -5.078327773742e-04  2.267265717267e-04
3
step 1249
H  8.106353265000e-01  3.501006830000e-01 -1.790975239000e-01 -3.110373486359e-04  9.335700630042e-04 -4.633840740056e-04
O -1.801986040000e-02 -1.216385308000e-01  5.904545110000e-02 -1.665926203598e-04 -2.346576085670e-05  1.334607880789e-05
H -9.146375098000e-01  4.076304229000e-01 -1.955264269000e-01  2.827084267011e-03 -6.406046336894e-04  2.897426208134e-04
3
step 1250
H  8.090231278000e-01  3.542050043000e-01 -1.811329642000e-01 -4.278965619778e-04  9.389783032808e-04 -4.652587169545e-04
O -1.877898970000e-02 -1.217247348000e-01  5.909587360000e-02 -1.794257200198e-04 -1.607093770434e-05  9.761743059277e-06
H -9.015371742000e-01  4.045465027000e-01 -1.941253096000e-01  3.147532609945e-03 -7.633921149824e-04  3.480135853551e-04
3
step 1251
H  8.068909042000e-01  3.583174615000e-01 -1.831688936000e-01 -5.479351316203e-04  9.374881752835e-04 -4.637108842883e-04
O -1.958997280000e-02 -1.217791638000e-01  5.913087380000e-02 -1.901610556678e-04 -9.056200176568e-06  6.352614848644e-06
H -8.870941914000e-01  4.009501578000e-01 -1.924810418000e-01  3.437874648063e-03 -8.732065957049e-04  4.001052547512e-04
3
step 1252
H  8.042282762000e-01  3.624087431000e-01 -1.851907892000e-01 -6.694928735777e-04  9.295295751389e-04 -4.589629794185e-04
O -2.044304440000e-02 -1.218039835000e-01  5.915146380000e-02 -1.985070322281e-04 -2.672721740749e-06  3.241243460964e-06
H -8.714531409000e-01  3.969052770000e-01 -1.906240825000e-01  3.691817071045e-03 -9.664865084031e-04  4.443060712222e-04
3
step 1253
H  8.010323294000e-01  3.664515564000e-01 -1.871851708000e-01 -7.908240570585e-04  9.155953923230e-04 -4.512691835495e-04
O -2.132706120000e-02 -1.218025521000e-01  5.915923720000e-02 -2.041250278792e-04  2.784410261044e-06  5.715614544384e-07
H -8.547879677000e-01  3.924926615000e-01 -1.885930237000e-01  3.902234239061e-03 -1.039042797630e-03  4.785997996278e-04
3
step 1254
H  7.973079607000e-01  3.704209032000e-01 -1.891397398000e-01 -9.101104227552e-04  8.962420261873e-04 -4.409156568039e-04
O -2.222929460000e-02 -1.217796178000e-01  5.915646540000e-02 -2.066320863903e-04  6.975102136127e-06 -1.490731373082e-06
H -8.373056059000e-01  3.878128576000e-01 -1.864359681000e-01  4.061226015424e-03 -1.086045174863e-03  5.006580309795e-04
3
step 1255
H  7.930681669000e-01  3.742943598000e-01 -1.910435202000e-01 -1.025475261614e-03  8.720913195041e-04 -4.282214204312e-04
O -2.313525000000e-02 -1.217415146000e-01  5.914619210000e-02 -2.056112659308e-04  9.517714110088e-06 -2.759927830222e-06
H -8.192491330000e-01  3.829889353000e-01 -1.842118830000e-01  4.160296704095e-03 -1.102077263392e-03  5.078662784450e-04
3
step 1256
H  7.883342676000e-01  3.780523694000e-01 -1.928870049000e-01 -1.134999710552e-03  8.438333056552e-04 -4.135395727011e-04
O -2.402855050000e-02 -1.216963305000e-01  5.913231390000e-02 -2.006326932293e-04  9.999578264299e-06 -3.035396316229e-06
H -8.008998269000e-01  3.781688384000e-01 -1.819917496000e-01  4.190703773471e-03 -1.081297448263e-03  4.974014791428e-04
3
step 1257
H  7.831360511000e-01  3.816785468000e-01 -1.946623078000e-01 -1.236742869557e-03  8.122288643991e-04 -3.972584270905e-04
O -2.489093960000e-02 -1.216540106000e-01  5.911963010000e-02 -1.912883719588e-04  7.997024213554e-06 -2.111102274181e-06
H -7.825772689000e-01  3.735267554000e-01 -1.798592395000e-01  4.144026871781e-03 -1.017748362354e-03  4.663808451276e-04
3
step 1258
H  7.775118213000e-01  3.851599934000e-01 -1.963633200000e-01 -1.328767596002e-03  7.781108874840e-04 -3.798018368256e-04
O -2.570247010000e-02 -1.216263504000e-01  5.911384020000e-02 -1.772428434497e-04  3.107179754173e-06  2.091611406925e-07
H -7.646364214000e-01  3.692627616000e-01 -1.779105605000e-01  4.012995133034e-03 -9.058575557449e-04  4.121022675139e-04
3
step 1259
H  7.715083180000e-01  3.884876124000e-01 -1.979858645000e-01 -1.409173690315e-03  7.423823679571e-04 -3.616280932645e-04
O -2.644195000000e-02 -1.216268204000e-01  5.912146040000e-02 -1.582993751890e-04 -5.006995359220e-06  4.090110955030e-06
H -7.474604913000e-01  3.655998087000e-01 -1.762530294000e-01  3.792574396246e-03 -7.411562580184e-04  3.323904347845e-04
3
step 1260
H  7.651804734000e-01  3.916564071000e-01 -1.995278425000e-01 -1.476139368925e-03  7.060100007246e-04 -3.432264062050e-04
O -2.708771070000e-02 -1.216701654000e-01  5.914963170000e-02 -1.344772432057e-04 -1.655946641870e-05  9.637296797305e-06
H -7.314484939000e-01  3.627770773000e-01 -1.750018899000e-01  3.481243121309e-03 -5.211958649806e-04  2.260399391906e-04
3
step 1261
H  7.585909692000e-01  3.946657400000e-01 -2.009893581000e-01 -1.527971317030e-03  6.700116487904e-04 -3.251104175941e-04
O -2.761872880000e-02 -1.217717284000e-01  5.920579420000e-02 -1.060890510246e-04 -3.157730305744e-05  1.686614131905e-05
H -7.169969507000e-01  3.610389461000e-01 -1.742750070000e-01  3.082275202544e-03 -2.465606409753e-04  9.330685891360e-05
3
step 1262
H  7.518095554000e-01  3.975195216000e-01 -2.023728074000e-01 -1.563162342981e-03  6.354368158202e-04 -3.078081818333e-04
O -2.801607110000e-02 -1.219464910000e-01  5.929722340000e-02 -7.379941253547e-05 -4.984222950312e-05  2.567343525858e-05
H -7.044762278000e-01  3.606194831000e-01 -1.741853835000e-01  2.604726680142e-03  7.822264179307e-05 -6.364754587213e-05
3
step 1263
H  7.449121028000e-01  4.002262983000e-01 -2.036829152000e-01 -1.580457050257e-03  6.033379126542e-04 -2.918475247724e-04
O -2.826453010000e-02 -1.222078861000e-01  5.943045640000e-02 -3.864171395634e-05 -7.085489284493e-05  3.581977554797e-05
H -6.942035995000e-01  3.617234541000e-01 -1.748319717000e-01  2.063760242075e-03  4.441545050457e-04 -2.404953884299e-04
3
step 1264
H  7.379793471000e-01  4.027991899000e-01 -2.049266965000e-01 -1.578919447553e-03  5.747333965301e-04 -2.777375264716e-04
O -2.835421560000e-02 -1.225665255000e-01  5.961067380000e-02 -1.973893699502e-06 -9.383999172802e-05  4.693169998352e-05
H -6.864167468000e-01  3.645061748000e-01 -1.762899021000e-01  1.480004941798e-03  8.378896013394e-04 -4.307986213808e-04
3
step 1265
H  7.310953497000e-01  4.052556552000e-01 -2.061133310000e-01 -1.557998191077e-03  5.505630892750e-04 -2.659460271686e-04
O -2.828180320000e-02 -1.230290578000e-01  5.984114460000e-02  3.463203025491e-05 -1.178024268726e-04  5.852861972809e-05
H -6.812524240000e-01  3.690556291000e-01 -1.786017892000e-01  8.778664122766e-04  1.242676599888e-03 -6.264603115326e-04
3
step 1266
H  7.243456710000e-01  4.076170381000e-01 -2.072539277000e-01 -1.517583612701e-03  5.316371326261e-04 -2.568741300787e-04
O -2.805115890000e-02 -1.235973869000e-01  6.012284400000e-02  6.955167879067e-05 -1.416298018261e-04  7.007224584663e-05
H -6.787347441000e-01  3.753805457000e-01 -1.817719091000e-01  2.830192452391e-04  1.640034862821e-03 -8.185345896332e-04
3
step 1267
H  7.178153320000e-01  4.099078869000e-01 -2.083611762000e-01 -1.458049883140e-03  5.185826626073e-04 -2.508295751522e-04
O -2.767317280000e-02 -1.242684269000e-01  6.045433040000e-02  1.012872262978e-04 -1.642202700706e-04  8.102852217689e-05
H -6.787757890000e-01  3.834071889000e-01 -1.857645931000e-01 -2.803865519985e-04  2.011834171914e-03 -9.982342011340e-04
3
step 1268
H  7.115866190000e-01  4.121550332000e-01 -2.094488784000e-01 -1.380272816103e-03  5.117914209668e-04 -2.480007527743e-04
O -2.716481820000e-02 -1.250344399000e-01  6.083190560000e-02  1.286214169207e-04 -1.846043026621e-04  9.092670587799e-05
H -6.811883409000e-01  3.929856339000e-01 -1.905072220000e-01 -7.921501445414e-04  2.342278911676e-03 -1.157893900812e-03
3
step 1269
H  7.057368889000e-01  4.143864533000e-01 -2.105313725000e-01 -1.285621293045e-03  5.113770846227e-04 -2.484355901831e-04
O -2.654763700000e-02 -1.258838558000e-01  6.125000860000e-02  1.507150966016e-04 -2.020332016339e-04  9.940243109375e-05
H -6.857077088000e-01  4.039039213000e-01 -1.958970506000e-01 -1.237576245834e-03  2.619359284177e-03 -1.291677302970e-03
3
step 1270
H  7.003364492000e-01  4.166299739000e-01 -2.116228799000e-01 -1.175923917512e-03  5.171453939883e-04 -2.520268738957e-04
O -2.584594580000e-02 -1.268023850000e-01  6.170175290000e-02  1.671360882706e-04 -2.160193844746e-04  1.062174466555e-04
H -6.920180799000e-01  4.159070316000e-01 -2.018103866000e-01 -1.607968912202e-03  2.835527976740e-03 -1.395909094668e-03
3
step 1271
H  6.954466550000e-01  4.189118712000e-01 -2.127368005000e-01 -1.053407022846e-03  5.285809061311e-04 -2.585059736852e-04
O -2.508506840000e-02 -1.277741907000e-01  6.217949260000e-02  1.778268472448e-04 -2.263292030418e-04  1.112562289498e-04
H -6.997786670000e-01  4.287169605000e-01 -2.081123231000e-01 -1.900186032088e-03  2.987605825047e-03 -1.469033000552e-03
3
step 1272
H  6.911183318000e-01  4.212554612000e-01 -2.138850049000e-01 -9.206146106135e-04  5.448538741711e-04 -2.674466502482e-04
O -2.428982480000e-02 -1.287829387000e-01  6.267533000000e-02  1.830329703363e-04 -2.329424625297e-04  1.145064864797e-04
H -7.086461614000e-01  4.420508682000e-01 -2.146655493000e-01 -2.115588441936e-03  3.076129719300e-03 -1.511297657167e-03
3
step 1273
H  6.873905728000e-01  4.236797595000e-01 -2.150771633000e-01 -7.803143199710e-04  5.648482082642e-04 -2.782793442410e-04
O -2.348338990000e-02 -1.298126155000e-01  6.318151190000e-02  1.832161360356e-04 -2.359960469700e-04  1.160319850987e-04
H -7.182916844000e-01  4.556354489000e-01 -2.213373338000e-01 -2.258750608066e-03  3.104417289421e-03 -1.524303432015e-03
3
step 1274
H  6.842899845000e-01  4.261983151000e-01 -2.163201621000e-01 -6.353949497664e-04  5.872087766099e-04 -2.903152153204e-04
O -2.268654350000e-02 -1.308480846000e-01  6.369069870000e-02  1.789699061593e-04 -2.357264431141e-04  1.159449435662e-04
H -7.284119573000e-01  4.692168945000e-01 -2.280043705000e-01 -2.336220259697e-03  3.077593696440e-03 -1.510530569951e-03
3
step 1275
H  6.818303809000e-01  4.288182855000e-01 -2.176176435000e-01 -4.887641634841e-04  6.104035668730e-04 -3.027775816808e-04
O -2.191726630000e-02 -1.318754022000e-01  6.419611890000e-02  1.709491354506e-04 -2.324204875969e-04  1.143823876160e-04
H -7.387353990000e-01  4.825667483000e-01 -2.345556319000e-01 -2.355493728818e-03  3.001742696427e-03 -1.472927722876e-03
3
step 1276
H  6.800129242000e-01  4.315398133000e-01 -2.189696975000e-01 -3.432499744300e-04  6.327967495099e-04 -3.148387259791e-04
O -2.119060770000e-02 -1.328819417000e-01  6.469163210000e-02  1.598165408223e-04 -2.263783598867e-04  1.114882498060e-04
H -7.490243295000e-01  4.954844396000e-01 -2.408936149000e-01 -2.324263321144e-03  2.883253143347e-03 -1.414594802609e-03
3
step 1277
H  6.788266810000e-01  4.343557412000e-01 -2.203727232000e-01 -2.015113866870e-04  6.527265635300e-04 -3.256590461966e-04
O -2.051874930000e-02 -1.338563860000e-01  6.517172640000e-02  1.462054931818e-04 -2.178892461273e-04  1.074013979946e-04
H -7.590744812000e-01  5.077974191000e-01 -2.469344187000e-01 -2.249917688939e-03  2.728364861911e-03 -1.338561701946e-03
3
step 1278
H  6.782495454000e-01  4.372516701000e-01 -2.218194633000e-01 -6.596256174582e-05  6.685816161101e-04 -3.344253151517e-04
O -1.991119780000e-02 -1.347886393000e-01  6.563147650000e-02  1.306963669272e-04 -2.072178546026e-04  1.022488473619e-04
H -7.687128306000e-01  5.193597195000e-01 -2.526070539000e-01 -2.139247209917e-03  2.542885339774e-03 -1.247649545653e-03
3
step 1279
H  6.782494582000e-01  4.402063418000e-01 -2.232992006000e-01  6.128616605225e-05  6.788698777050e-04 -3.403852374780e-04
O -1.937505610000e-02 -1.356697008000e-01  6.606648200000e-02  1.138036267910e-04 -1.945991453404e-04  9.614308635832e-05
H -7.777945310000e-01  5.300496113000e-01 -2.578523067000e-01 -1.998303089853e-03  2.332039253832e-03 -1.144396978051e-03
3
step 1280
H  6.787858462000e-01  4.431923009000e-01 -2.247980946000e-01  1.784690402379e-04  6.822761901618e-04 -3.428761465440e-04
O -1.891532900000e-02 -1.364915307000e-01  6.647280200000e-02  9.597106939852e-05 -1.802387689313e-04  8.918238753428e-05
H -7.861995114000e-01  5.397668471000e-01 -2.626214029000e-01 -1.832363596388e-03  2.100414829203e-03 -1.031033865886e-03
3
step 1281
H  6.798111988000e-01  4.461767804000e-01 -2.262996292000e-01  2.841872345453e-04  6.777055269379e-04 -3.413465797093e-04
O -1.853523580000e-02 -1.372469279000e-01  6.684689610000e-02  7.757266890878e-05 -1.643167873459e-04  8.145281879306e-05
H -7.938291143000e-01  5.484298479000e-01 -2.668746419000e-01 -1.645968789706e-03  1.851975815319e-03 -9.094870761143e-04
3
step 1282
H  6.812727020000e-01  4.491227427000e-01 -2.277851383000e-01  3.774135427875e-04  6.643103827057e-04 -3.353698771359e-04
O -1.823650880000e-02 -1.379294283000e-01  6.718557650000e-02  5.891711147483e-05 -1.469928986212e-04  7.303089001649e-05
H -8.006029976000e-01  5.559730523000e-01 -2.705801106000e-01 -1.442994536638e-03  1.590113559089e-03 -7.814056805486e-04
3
step 1283
H  6.831138560000e-01  4.519900045000e-01 -2.292343722000e-01  4.574836756177e-04  6.415041436127e-04 -3.246507503563e-04
O -1.801966600000e-02 -1.385332282000e-01  6.748597230000e-02  4.025425410771e-05 -1.284119678052e-04  6.398632310849e-05
H -8.064564205000e-01  5.623445581000e-01 -2.737125394000e-01 -1.226745005429e-03  1.317719803102e-03 -6.481962442072e-04
3
step 1284
H  6.852760341000e-01  4.547363948000e-01 -2.306260807000e-01  5.240744978605e-04  6.089601959304e-04 -3.090247428926e-04
O -1.788425330000e-02 -1.390531312000e-01  6.774550580000e-02  2.178260287975e-05 -1.087089819525e-04  5.438445635624e-05
H -8.113379549000e-01  5.675041087000e-01 -2.762523237000e-01 -1.000049141874e-03  1.037266838624e-03 -5.110615876365e-04
3
step 1285
H  6.876999088000e-01  4.573188721000e-01 -2.319385751000e-01  5.771725661199e-04  5.665992277363e-04 -2.884517668213e-04
O -1.782905160000e-02 -1.394845149000e-01  6.796187790000e-02  3.657143097029e-06 -8.801326004195e-05  4.428823739880e-05
H -8.152076155000e-01  5.714214365000e-01 -2.781847193000e-01 -7.653540097311e-04  7.508875031728e-04 -3.710395995180e-04
3
step 1286
H  6.903267356000e-01  4.596945715000e-01 -2.331502544000e-01  6.170386621660e-04  5.145693129407e-04 -2.630060556518e-04
O -1.785225050000e-02 -1.398233146000e-01  6.813306180000e-02 -1.400286252525e-05 -6.645198638184e-05  3.375989622372e-05
H -8.180353880000e-01  5.740749489000e-01 -2.794992040000e-01 -5.248130207168e-04  4.604520332240e-04 -2.290405134086e-04
3
step 1287
H  6.930994692000e-01  4.618217473000e-01 -2.342400793000e-01  6.441689940417e-04  4.532199387007e-04 -2.328631094679e-04
O -1.795158730000e-02 -1.400660206000e-01  6.825730280000e-02 -3.110624481556e-05 -4.415309950022e-05  2.286227990741e-05
H -8.198001310000e-01  5.754507440000e-01 -2.801889990000e-01 -2.803687386989e-04  1.676408304245e-04 -8.588226922100e-05
3
step 1288
H  6.959637071000e-01  4.636605927000e-01 -2.351879847000e-01  6.592572199546e-04  3.830739530158e-04 -1.982855521645e-04
O -1.812445390000e-02 -1.402096880000e-01  6.833312420000e-02 -4.758254593434e-05 -2.124796162579e-05  1.166010964816e-05
H -8.204888290000e-01  5.755419344000e-01 -2.802507396000e-01 -3.383211390941e-05 -1.259850165756e-04  5.767518120511e-05
3
step 1289
H  6.988684743000e-01  4.651739374000e-01 -2.359752296000e-01  6.631580811708e-04  3.047989820838e-04 -1.596088058426e-04
O -1.836797100000e-02 -1.402519566000e-01  6.835933770000e-02 -6.337500741566e-05  2.126236950890e-06  2.210778130511e-07
H -8.200961879000e-01  5.743482787000e-01 -2.796842970000e-01  2.130422687770e-04 -4.189169082513e-04  2.008973146638e-04
3
step 1290
H  7.017668477000e-01  4.663278170000e-01 -2.365846839000e-01  6.568530781592e-04  2.191787836630e-04 -1.172266555005e-04
O -1.867903370000e-02 -1.401910818000e-01  6.833505880000e-02 -7.843369076871e-05  2.582416036574e-05 -1.138304130204e-05
H -8.186245462000e-01  5.718760910000e-01 -2.784927344000e-01  4.584807450110e-04 -7.096328976731e-04  3.430430119542e-04
3
step 1291
H  7.046164412000e-01  4.670919195000e-01 -2.370010526000e-01  6.414215679755e-04  1.270879829956e-04 -7.157860556754e-05
O -1.905432580000e-02 -1.400259754000e-01  6.825972740000e-02 -9.270884491488e-05  4.968971255263e-05 -2.307516186563e-05
H -8.160841306000e-01  5.681384480000e-01 -2.766824083000e-01  7.006149432954e-04 -9.965313923038e-04  4.833322452778e-04
3
step 1292
H  7.073797772000e-01  4.674399341000e-01 -2.372110514000e-01  6.180152259236e-04  2.947026899899e-05 -2.313889115064e-05
O -1.949030710000e-02 -1.397562587000e-01  6.813313350000e-02 -1.061444244687e-04  7.355317577932e-05 -3.477154719919e-05
H -8.124936294000e-01  5.631556789000e-01 -2.742632075000e-01  9.374033644132e-04 -1.277863095949e-03  6.209129291361e-04
3
step 1293
H  7.100245473000e-01  4.673498069000e-01 -2.372035356000e-01  5.878363880207e-04 -7.268074920227e-05  2.759312569731e-05
O -1.998317070000e-02 -1.393823289000e-01  6.795544980000e-02 -1.186714388910e-04  9.722792864864e-05 -4.638024648524e-05
H -8.078811340000e-01  5.569561682000e-01 -2.712489451000e-01  1.166547900727e-03 -1.551660189807e-03  7.548264227758e-04
3
step 1294
H  7.125237953000e-01  4.668039219000e-01 -2.369695905000e-01  5.521220112573e-04 -1.783367638034e-04  8.010061245098e-05
O -2.052877300000e-02 -1.389054400000e-01  6.772727080000e-02 -1.302016261846e-04  1.205070086848e-04 -5.779947662313e-05
H -8.022854428000e-01  5.495774651000e-01 -2.676578988000e-01  1.385408152240e-03 -1.815665239256e-03  8.839729594972e-04
3
step 1295
H  7.148560373000e-01  4.657892237000e-01 -2.365025939000e-01  5.121294531255e-04 -2.864469638243e-04  1.338553821492e-04
O -2.112253450000e-02 -1.383278003000e-01  6.744966010000e-02 -1.406206054931e-04  1.431591446803e-04 -6.891571610997e-05
H -7.957577527000e-01  5.410677083000e-01 -2.635135054000e-01  1.590907441676e-03 -2.067255191353e-03  1.007074685314e-03
3
step 1296
H  7.170053198000e-01  4.642972918000e-01 -2.357982535000e-01  4.691235264658e-04 -3.959477211198e-04  1.883228072511e-04
O -2.175931090000e-02 -1.376526879000e-01  6.712420560000e-02 -1.497807691511e-04  1.649244370736e-04 -7.960163893557e-05
H -7.883637856000e-01  5.314874006000e-01 -2.588452249000e-01  1.779432420965e-03 -2.303362625156e-03  1.122637422299e-03
3
step 1297
H  7.189612270000e-01  4.623243783000e-01 -2.348546253000e-01  4.243675173949e-04 -5.057689075417e-04  2.429650239274e-04
O -2.243323090000e-02 -1.368845853000e-01  6.675308490000e-02 -1.574942752968e-04  1.855100566109e-04 -8.971398905402e-05
H -7.801863577000e-01  5.209115232000e-01 -2.536895691000e-01  1.946732261775e-03 -2.520401317079e-03  1.228914470600e-03
3
step 1298
H  7.207188603000e-01  4.598714270000e-01 -2.336721236000e-01  3.791138832621e-04 -6.148389093572e-04  2.972434689812e-04
O -2.313750630000e-02 -1.360293330000e-01  6.633913950000e-02 -1.635265478686e-04  2.045865280996e-04 -9.909170169076e-05
H -7.713283890000e-01  5.094319609000e-01 -2.480912831000e-01  2.087826503570e-03 -2.714204600577e-03  1.323876521936e-03
3
step 1299
H  7.222787636000e-01  4.569440674000e-01 -2.322535175000e-01  3.345938169902e-04 -7.220888737351e-04  3.506210373741e-04
O -2.386421330000e-02 -1.350942967000e-01  6.588595670000e-02 -1.675913261815e-04  2.217856734455e-04 -1.075547011621e-04
H -7.619162785000e-01  4.971601564000e-01 -2.421046367000e-01  2.196939907305e-03 -2.879992852409e-03  1.405195688415e-03
3
step 1300
H  7.236468121000e-01  4.535525969000e-01 -2.306039213000e-01  2.920079633160e-04 -8.264551816725e-04  4.025633986820e-04
O -2.460405860000e-02 -1.340885387000e-01  6.539795360000e-02 -1.693491884838e-04  2.367016629892e-04 -1.149042665572e-04
H -7.521034840000e-01  4.842298201000e-01 -2.357947457000e-01  2.267489322859e-03 -3.012392169868e-03  1.470254342907e-03
3
step 1301
H  7.248340567000e-01  4.497119523000e-01 -2.287307798000e-01  2.525159099942e-04 -9.268817106534e-04  4.525401352818e-04
O -2.534614830000e-02 -1.330229760000e-01  6.488045640000e-02 -1.684117298785e-04  2.488972001083e-04 -1.209260943280e-04
H -7.420740122000e-01  4.707994203000e-01 -2.292387864000e-01  2.292156889494e-03 -3.105531363442e-03  1.516192397198e-03
3
step 1302
H  7.258565195000e-01  4.454416728000e-01 -2.266438489000e-01  2.172250573431e-04 -1.022321759053e-03  5.000257068379e-04
O -2.607779010000e-02 -1.319104978000e-01  6.433975780000e-02 -1.643539315268e-04  2.579170240368e-04 -1.253970359853e-04
H -7.320453576000e-01  4.570540448000e-01 -2.225269023000e-01  2.263092765555e-03 -3.153249527233e-03  1.540008925100e-03
3
step 1303
H  7.267349421000e-01  4.407658548000e-01 -2.243551723000e-01  1.871791175347e-04 -1.111740180807e-03  5.445005336366e-04
O -2.678437090000e-02 -1.307660048000e-01  6.378313640000e-02 -1.567378842885e-04  2.633109935612e-04 -1.280966262340e-04
H -7.222702191000e-01  4.432060745000e-01 -2.157625301000e-01  2.172297746449e-03 -3.149450120003e-03  1.538735271890e-03
3
step 1304
H  7.274944800000e-01  4.357130957000e-01 -2.218790527000e-01  1.633462619175e-04 -1.194116557706e-03  5.854525735910e-04
O -2.744936650000e-02 -1.296063251000e-01  6.321881430000e-02 -1.451508105402e-04  2.646686531407e-04 -1.288240506321e-04
H -7.130360904000e-01  4.294939467000e-01 -2.090617915000e-01  2.012238849674e-03 -3.088635222460e-03  1.509695095572e-03
3
step 1305
H  7.281643469000e-01  4.303164213000e-01 -2.192320144000e-01  1.466076340209e-04 -1.268450067543e-03  6.223797494569e-04
O -2.805455150000e-02 -1.284499516000e-01  6.265582740000e-02 -1.292600216561e-04  2.616657111297e-04 -1.274207036186e-04
H -7.046615897000e-01  4.161781533000e-01 -2.025515430000e-01  1.776739152449e-03 -2.966636106522e-03  1.450859247849e-03
3
step 1306
H  7.287774089000e-01  4.246131872000e-01 -2.164327537000e-01  1.377473024329e-04 -1.333766697194e-03  6.547935508042e-04
O -2.858049050000e-02 -1.273165500000e-01  6.210378570000e-02 -1.088847288719e-04  2.541202634329e-04 -1.237974089906e-04
H -6.974882635000e-01  4.035336112000e-01 -1.963656631000e-01  1.462135098523e-03 -2.781509883780e-03  1.361281900562e-03
3
step 1307
H  7.293697411000e-01  4.186449423000e-01 -2.135020699000e-01  1.374421451142e-04 -1.389131127296e-03  6.822249992091e-04
O -2.900737620000e-02 -1.262262048000e-01  6.157250540000e-02 -8.407844979401e-05  2.420525917054e-04 -1.179634276527e-04
H -6.918667890000e-01  3.918378139000e-01 -1.906392849000e-01  1.068599166530e-03 -2.534492747861e-03  1.241565117641e-03
3
step 1308
H  7.299801329000e-01  4.124572271000e-01 -2.104627631000e-01  1.462536763975e-04 -1.433662634853e-03  7.042326018447e-04
O -2.931624130000e-02 -1.251984046000e-01  6.107151550000e-02 -5.520796378193e-05  2.257365142918e-04 -1.100514337189e-04
H -6.881372033000e-01  3.813548606000e-01 -1.855010184000e-01  6.013997552587e-04 -2.230808603159e-03  1.094252493832e-03
3
step 1309
H  7.306495727000e-01  4.060992975000e-01 -2.073394959000e-01  1.646191106268e-04 -1.466556590790e-03  7.204131299671e-04
O -2.949048810000e-02 -1.242508376000e-01  6.060947120000e-02 -2.300717695271e-05  2.057262273078e-04 -1.003305693711e-04
H -6.866040811000e-01  3.723165319000e-01 -1.810637384000e-01  7.175949489445e-05 -1.880069953211e-03  9.240230531698e-04
3
step 1310
H  7.314206760000e-01  3.996237349000e-01 -2.041585970000e-01  1.928389700974e-04 -1.487112891747e-03  7.304158348152e-04
O -2.951757170000e-02 -1.233981428000e-01  6.019354620000e-02  1.141800053111e-05  1.828426464057e-04 -8.919978487029e-05
H -6.875092528000e-01  3.649028102000e-01 -1.774151098000e-01 -5.030600701016e-04 -1.496024345723e-03  7.375660484977e-04
3
step 1311
H  7.323370612000e-01  3.930859220000e-01 -2.009477985000e-01  2.310553178168e-04 -1.494771559259e-03  7.339603203338e-04
O -2.939057190000e-02 -1.226508246000e-01  5.982890480000e-02  4.665134963865e-05  1.581108888121e-04 -7.715739550367e-05
H -6.910062415000e-01  3.592251744000e-01 -1.746094712000e-01 -1.100717761688e-03 -1.095519272215e-03  5.430759450518e-04
3
step 1312
H  7.334425868000e-01  3.865433402000e-01 -1.977358827000e-01  2.792223612174e-04 -1.489151204957e-03  7.308558329156e-04
O -2.910933670000e-02 -1.220145515000e-01  5.951836000000e-02  8.109436784829e-05  1.326546779892e-04 -6.474970321995e-05
H -6.971413753000e-01  3.553161784000e-01 -1.726627798000e-01 -1.695793036781e-03 -6.967864597508e-04  3.494168180929e-04
3
step 1313
H  7.347804705000e-01  3.800547096000e-01 -1.945522508000e-01  3.370706290031e-04 -1.470090357245e-03  7.210220641539e-04
O -2.868093410000e-02 -1.214899947000e-01  5.926229530000e-02  1.131387386394e-04  1.075696301425e-04 -5.250938830169e-05
H -7.058457280000e-01  3.531277598000e-01 -1.715518068000e-01 -2.262484603872e-03 -3.173922124308e-04  1.651248126967e-04
3
step 1314
H  7.363922127000e-01  3.736789249000e-01 -1.914263881000e-01  4.040631715503e-04 -1.437687713780e-03  7.045094507815e-04
O -2.811928620000e-02 -1.210732349000e-01  5.905886270000e-02  1.413450724355e-04  8.380569192815e-05 -4.089831208061e-05
H -7.169398465000e-01  3.525387537000e-01 -1.712178114000e-01 -2.777401461283e-03  2.766723121794e-05 -2.518092974908e-06
3
step 1315
H  7.383163324000e-01  3.674738422000e-01 -1.883872541000e-01  4.793580419027e-04 -1.392330486419e-03  6.815135551281e-04
O -2.744405660000e-02 -1.207566308000e-01  5.890440380000e-02  1.645866288954e-04  6.208514076580e-05 -3.026774898609e-05
H -7.301501156000e-01  3.533698692000e-01 -1.715738420000e-01 -3.221805681638e-03  3.272953054169e-04 -1.481297455074e-04
3
step 1316
H  7.405869623000e-01  3.614949679000e-01 -1.854626230000e-01  5.617779944208e-04 -1.334712749334e-03  6.523844403005e-04
O -2.667902730000e-02 -1.205299424000e-01  5.879399670000e-02  1.821313440266e-04  4.287030880311e-05 -2.084283590485e-05
H -7.451331111000e-01  3.554028380000e-01 -1.725140600000e-01 -3.582887770070e-03  5.748319616264e-04 -2.684868792964e-04
3
step 1317
H  7.432323196000e-01  3.557940845000e-01 -1.826783912000e-01  6.497937136763e-04 -1.265838529024e-03  6.176283614631e-04
O -2.585026800000e-02 -1.203814828000e-01  5.872201310000e-02  1.936557901078e-04  2.637781252892e-05 -1.272966184679e-05
H -7.615031247000e-01  3.584000886000e-01 -1.739233076000e-01 -3.853977589780e-03  7.678391135904e-04 -3.624179533464e-04
3
step 1318
H  7.462731544000e-01  3.504179123000e-01 -1.800579024000e-01  7.415324171292e-04 -1.187003735040e-03  5.778988797580e-04
O -2.498439090000e-02 -1.202991164000e-01  5.868260240000e-02  1.992032913511e-04  1.262424020713e-05 -5.937597421158e-06
H -7.788583635000e-01  3.621220177000e-01 -1.756854944000e-01 -4.033892487601e-03  9.073622059010e-04 -4.304415554578e-04
3
step 1319
H  7.497212956000e-01  3.454068937000e-01 -1.776213339000e-01  8.348115984627e-04 -1.099759047799e-03  5.339783222113e-04
O -2.410708680000e-02 -1.202710110000e-01  5.867005460000e-02  1.991089178883e-04  1.484958163573e-06 -4.079186195944e-07
H -7.968027701000e-01  3.663402021000e-01 -1.776900005000e-01 -4.125777569112e-03  9.969535816756e-04 -4.742903615638e-04
3
step 1320
H  7.535783946000e-01  3.407941793000e-01 -1.753851836000e-01  9.271974727592e-04 -1.005855500485e-03  4.867504241257e-04
O -2.324203560000e-02 -1.202861219000e-01  5.867903280000e-02  1.939131253222e-04 -7.248824489092e-06  3.958501890761e-06
H -8.149620736000e-01  3.708461243000e-01 -1.798358979000e-01 -4.135787615033e-03  1.041699113948e-03 -4.964380890905e-04
3
step 1321
H  7.578349828000e-01  3.366048885000e-01 -1.733618953000e-01  1.016087085892e-03 -9.071760507488e-04  4.371659458005e-04
O -2.241019860000e-02 -1.203344438000e-01  5.870469450000e-02  1.842799058826e-04 -1.382347249583e-05  7.278719018138e-06
H -8.329940758000e-01  3.754558663000e-01 -1.820342136000e-01 -4.071865199479e-03  1.047399031579e-03 -4.997022471194e-04
3
step 1322
H  7.624699340000e-01  3.328556948000e-01 -1.715596471000e-01  1.098808095516e-03 -8.056588605577e-04  3.862039787724e-04
O -2.162944540000e-02 -1.204070878000e-01  5.874272720000e-02  1.709280355811e-04 -1.848961080054e-05  9.671808065547e-06
H -8.505940093000e-01  3.800116671000e-01 -1.842086749000e-01 -3.942748950395e-03  1.019961892244e-03 -4.869510100161e-04
3
step 1323
H  7.674503943000e-01  3.295547572000e-01 -1.699823150000e-01  1.172728004944e-03 -7.032190081820e-04  3.348324201281e-04
O -2.091444750000e-02 -1.204962420000e-01  5.878933020000e-02  1.545784159575e-04 -2.148143606923e-05  1.124906901582e-05
H -8.674961455000e-01  3.843813132000e-01 -1.862954075000e-01 -3.757249653987e-03  9.650058287226e-04 -4.609101554541e-04
3
step 1324
H  7.727322012000e-01  3.267019905000e-01 -1.686296072000e-01  1.235363406170e-03 -6.016751551793e-04  2.839709106023e-04
O -2.027676600000e-02 -1.205950668000e-01  5.884116520000e-02  1.359169710383e-04 -2.300636788059e-05  1.210914010174e-05
H -8.834728183000e-01  3.884562064000e-01 -1.882419913000e-01 -3.523773181005e-03  8.876302671512e-04 -4.240521209714e-04
3
step 1325
H  7.782607692000e-01  3.242896392000e-01 -1.674973523000e-01  1.284479751712e-03 -5.026869095858e-04  2.344590065031e-04
O -1.972507000000e-02 -1.206975653000e-01  5.889529440000e-02  1.155709282680e-04 -2.324225582730e-05  1.233662649732e-05
H -8.983318567000e-01  3.921487571000e-01 -1.900061880000e-01 -3.250044003494e-03  7.923140753510e-04 -3.785465180122e-04
3
step 1326
H  7.839723817000e-01  3.223030955000e-01 -1.665779116000e-01  1.318173902827e-03 -4.077067706887e-04  1.870317338496e-04
O -1.926543200000e-02 -1.207984544000e-01  5.894912010000e-02  9.409565851680e-05 -2.233942276597e-05  1.200303280774e-05
H -9.119131897000e-01  3.953895607000e-01 -1.915545630000e-01 -2.942977964772e-03  6.828993722457e-04 -3.262525577318e-04
3
step 1327
H  7.897957993000e-01  3.207218930000e-01 -1.658606815000e-01  1.334934348244e-03 -3.179485889272e-04  1.423033703616e-04
O -1.890166100000e-02 -1.208930524000e-01  5.900033020000e-02  7.196951081755e-05 -2.042519927781e-05  1.116885202955e-05
H -9.240851655000e-01  3.981246491000e-01 -1.928611475000e-01 -2.608659264299e-03  5.626286034768e-04 -2.687376230871e-04
3
step 1328
H  7.956540786000e-01  3.195208021000e-01 -1.653326482000e-01  1.333676318811e-03 -2.343726826222e-04  1.007596975648e-04
O -1.863564370000e-02 -1.209771905000e-01  5.904685610000e-02  4.959451630463e-05 -1.760928091451e-05  9.886180179192e-06
H -9.347409540000e-01  4.003129914000e-01 -1.939062228000e-01 -2.252385697150e-03  4.342114429828e-04 -2.073103950828e-04
3
step 1329
H  8.014664875000e-01  3.186709527000e-01 -1.649789571000e-01  1.313754508662e-03 -1.576851934611e-04  6.275745683939e-05
O -1.846767110000e-02 -1.210471471000e-01  5.908684180000e-02  2.730099581094e-05 -1.398896202635e-05  8.201312637433e-06
H -9.437952635000e-01  4.019243314000e-01 -1.946752720000e-01 -1.878754781345e-03  2.999050054142e-04 -1.430604104559e-04
3
step 1330
H  8.071504356000e-01  3.181409360000e-01 -1.647834725000e-01  1.274953252084e-03 -8.835013115926e-05  2.853028718573e-05
O -1.839673910000e-02 -1.210996046000e-01  5.911862390000e-02  5.354887227218e-06 -9.653629083587e-06  6.156979382485e-06
H -9.511814957000e-01  4.029373897000e-01 -1.951581108000e-01 -1.491770089120e-03  1.615969748654e-04 -7.689861127317e-05
3
step 1331
H  8.126233038000e-01  3.178978215000e-01 -1.647292952000e-01  1.217458672231e-03 -2.661089386388e-05 -1.800468862799e-06
O -1.842081170000e-02 -1.211316237000e-01  5.914072010000e-02 -1.603340498599e-05 -4.688440354743e-06  3.794155117465e-06
H -9.568493931000e-01  4.033384285000e-01 -1.953481937000e-01 -1.094954731861e-03  2.088541503912e-05 -9.596061545541e-06
3
step 1332
H  8.178041304000e-01  3.179080703000e-01 -1.647992279000e-01  1.141819553121e-03  2.748256165013e-05 -2.821210243460e-05
O -1.853704360000e-02 -1.211406320000e-01  5.915182560000e-02 -3.669920951234e-05  8.225977909411e-07  1.153544854783e-06
H -9.607631873000e-01  4.031201531000e-01 -1.952420837000e-01 -6.914681224707e-04 -1.208450134173e-04  5.817922399158e-05
3
step 1333
H  8.226150985000e-01  3.181383149000e-01 -1.649761727000e-01  1.048902548120e-03  7.404517390462e-05 -5.076609843948e-05
O -1.874195790000e-02 -1.211244253000e-01  5.915081450000e-02 -5.651365990489e-05  6.794084820410e-06 -1.723200190167e-06
H -9.629002681000e-01  4.022809422000e-01 -1.948390810000e-01 -2.842191723242e-04 -2.623536189829e-04  1.258287102422e-04
3
step 1334
H  8.269828302000e-01  3.185560222000e-01 -1.652434701000e-01  9.398440241584e-04  1.133266764928e-04 -6.959286833214e-05
O -1.903158140000e-02 -1.210811786000e-01  5.913674630000e-02 -7.537357889918e-05  1.313705936909e-05 -4.792458688534e-06
H -9.632503225000e-01  4.008243582000e-01 -1.941409862000e-01  1.240213528388e-04 -4.024786518061e-04  1.927919387810e-04
3
step 1335
H  8.308394527000e-01  3.191300101000e-01 -1.655851636000e-01  8.160031172567e-04  1.456839387836e-04 -8.487774447959e-05
O -1.940153430000e-02 -1.210094660000e-01  5.910887680000e-02 -9.319150442812e-05  1.975678229187e-05 -8.007615287530e-06
H -9.618149864000e-01  3.987589461000e-01 -1.931520040000e-01  5.305092586696e-04 -5.400741640822e-04  2.585159065310e-04
3
step 1336
H  8.341234817000e-01  3.198308682000e-01 -1.659862154000e-01  6.789194642266e-04  1.715565886240e-04 -9.684857895971e-05
O -1.984707830000e-02 -1.209082916000e-01  5.906667350000e-02 -1.098859441884e-04  2.655040086733e-05 -1.131798184761e-05
H -9.586079607000e-01  3.960982960000e-01 -1.918787743000e-01  9.324147400191e-04 -6.739482874499e-04  3.224251895183e-04
3
step 1337
H  8.367805174000e-01  3.206312615000e-01 -1.664326627000e-01  5.302769224124e-04  1.914457067737e-04 -1.057649010807e-04
O -2.036312040000e-02 -1.207771297000e-01  5.900983580000e-02 -1.253719136105e-04  3.340442558979e-05 -1.466756783572e-05
H -9.536556441000e-01  3.928613830000e-01 -1.903305369000e-01  1.326708242346e-03 -8.028013366893e-04  3.838920254881e-04
3
step 1338
H  8.387638105000e-01  3.215061646000e-01 -1.669117391000e-01  3.718745756552e-04  2.058986465182e-04 -1.119102060554e-04
O -2.094417850000e-02 -1.206159774000e-01  5.893832110000e-02 -1.395516520993e-04  4.019160815655e-05 -1.799362673804e-05
H -9.469982485000e-01  3.890731702000e-01 -1.885194253000e-01  1.710042177202e-03 -9.251607411253e-04  4.422047509499e-04
3
step 1339
H  8.400347045000e-01  3.224330321000e-01 -1.674119626000e-01  2.056047202174e-04  2.154969250127e-04 -1.155857886830e-04
O -2.158430410000e-02 -1.204254224000e-01  5.885237780000e-02 -1.523057780928e-04  4.676757719064e-05 -2.122499220553e-05
H -9.386914668000e-01  3.847655187000e-01 -1.864609070000e-01  2.078631947491e-03 -1.039314929265e-03  4.965358816829e-04
3
step 1340
H  8.405630091000e-01  3.233919275000e-01 -1.679232032000e-01  3.343853917852e-05  2.208489142076e-04 -1.171070088189e-04
O -2.227697060000e-02 -1.202067253000e-01  5.875258620000e-02 -1.634848280878e-04  5.296696200829e-05 -2.428018564795e-05
H -9.288086287000e-01  3.799783694000e-01 -1.841743565000e-01  2.428135688269e-03 -1.143244461677e-03  5.459086756594e-04
3
step 1341
H  8.403273172000e-01  3.243656291000e-01 -1.684367386000e-01 -1.425833870213e-04  2.225865268519e-04 -1.168015909515e-04
O -2.301492150000e-02 -1.199619209000e-01  5.863990760000e-02 -1.729010105038e-04  5.859899986015e-05 -2.706518100070e-05
H -9.174434218000e-01  3.747612550000e-01 -1.816837885000e-01  2.753532106000e-03 -1.234548620267e-03  5.891612916072e-04
3
step 1342
H  8.393152954000e-01  3.253397299000e-01 -1.689453065000e-01 -3.203554276296e-04  2.213653216273e-04 -1.150096333445e-04
O -2.378998670000e-02 -1.196939392000e-01  5.851574510000e-02 -1.803212622900e-04  6.344311574636e-05 -2.947119234683e-05
H -9.047131162000e-01  3.691751245000e-01 -1.790187445000e-01  3.049014755223e-03 -1.310376737710e-03  6.249128719749e-04
3
step 1343
H  8.375239622000e-01  3.263027450000e-01 -1.694431608000e-01 -4.977066958849e-04  2.178680548373e-04 -1.120854273064e-04
O -2.459287050000e-02 -1.194067451000e-01  5.838201220000e-02 -1.854625270523e-04  6.724492733724e-05 -3.137266723537e-05
H -8.907622101000e-01  3.632944560000e-01 -1.762153228000e-01  3.307916616580e-03 -1.367370405931e-03  6.515346905978e-04
3
step 1344
H  8.349599810000e-01  3.272462421000e-01 -1.699261397000e-01 -6.723998422658e-04  2.128104856142e-04 -1.084003597938e-04
O -2.541292570000e-02 -1.191054946000e-01  5.824121030000e-02 -1.879906762908e-04  6.971363491585e-05 -3.262601593529e-05
H -8.757663151000e-01  3.572095873000e-01 -1.733173175000e-01  3.522692525777e-03 -1.401630564701e-03  6.671334867265e-04
3
step 1345
H  8.316399491000e-01  3.281649996000e-01 -1.703917469000e-01 -8.421308899334e-04  2.069486118579e-04 -1.043465290952e-04
O -2.623793270000e-02 -1.187966975000e-01  5.809650950000e-02 -1.875251672780e-04  7.052214479570e-05 -3.306985370003e-05
H -8.599359554000e-01  3.510291163000e-01 -1.703773944000e-01  3.684994124748e-03 -1.408728668654e-03  6.695562006122e-04
3
step 1346
H  8.275906915000e-01  3.290572008000e-01 -1.708392517000e-01 -1.004529979809e-03  2.010871540653e-04 -1.003410004591e-04
O -2.705391440000e-02 -1.184883719000e-01  5.795182380000e-02 -1.836522579035e-04  6.931177290955e-05 -3.252745998104e-05
H -8.435197973000e-01  3.448821337000e-01 -1.674581885000e-01  3.785881079758e-03 -1.383787475658e-03  6.564288546795e-04
3
step 1347
H  8.228495433000e-01  3.299246660000e-01 -1.712698074000e-01 -1.157167216921e-03  1.960876277673e-04 -9.682977374679e-05
O -2.784503050000e-02 -1.181901664000e-01  5.781186940000e-02 -1.759499370656e-04  6.570373180503e-05 -3.081252878216e-05
H -8.268065996000e-01  3.389199172000e-01 -1.646331397000e-01  3.816221974348e-03 -1.321664582764e-03  6.252461045532e-04
3
step 1348
H  8.174645930000e-01  3.307731175000e-01 -1.716865863000e-01 -1.297566004094e-03  1.928746241229e-04 -9.429080488287e-05
O -2.859361090000e-02 -1.179134140000e-01  5.768219060000e-02 -1.640276697676e-04  5.931963170928e-05 -2.773910150544e-05
H -8.101249354000e-01  3.333165575000e-01 -1.619868067000e-01  3.767337896499e-03 -1.217275945350e-03  5.735287064329e-04
3
step 1349
H  8.114948480000e-01  3.316124665000e-01 -1.720949241000e-01 -1.423226966718e-03  1.924384291185e-04 -9.323513032800e-05
O -2.928039810000e-02 -1.176710743000e-01  5.756913100000e-02 -1.475832927147e-04  4.981293834989e-05 -2.313658735207e-05
H -7.938395108000e-01  3.282678214000e-01 -1.596143247000e-01  3.631928433087e-03 -1.066094425530e-03  4.990652879544e-04
3
step 1350
H  8.050102682000e-01  3.324571010000e-01 -1.725024650000e-01 -1.531665965419e-03  1.958316775747e-04 -9.420492439178e-05
O -2.988507770000e-02 -1.174775127000e-01  5.747972770000e-02 -1.264763107625e-04  3.691202290512e-05 -1.687041523107e-05
H -7.783427830000e-01  3.239874156000e-01 -1.576196037000e-01  3.405273356823e-03 -8.648369137887e-04  4.002457041854e-04
3
step 1351
H  7.980915990000e-01  3.333261435000e-01 -1.729192893000e-01 -1.620468820423e-03  2.041577107358e-04 -9.776730091752e-05
O -3.038716260000e-02 -1.173480658000e-01  5.742150200000e-02 -1.008111307821e-04  2.047300766914e-05 -8.867617808011e-06
H -7.640407638000e-01  3.206998367000e-01 -1.561118686000e-01  3.086610041816e-03 -6.123031447845e-04  2.764688876800e-04
3
step 1352
H  7.908299263000e-01  3.342436372000e-01 -1.733580037000e-01 -1.687364703993e-03  2.185485347685e-04 -1.045028034315e-04
O -3.076725220000e-02 -1.172983582000e-01  5.740212930000e-02 -7.101619074194e-05  5.359897074899e-07  8.556234747888e-07
H -7.513325837000e-01  3.186292947000e-01 -1.552002894000e-01  2.680465086571e-03 -3.102547427769e-04  1.285720360954e-04
3
step 1353
H  7.833258670000e-01  3.352386104000e-01 -1.738337687000e-01 -1.730321441811e-03  2.401289473266e-04 -1.149868376234e-04
O -3.100860860000e-02 -1.173433755000e-01  5.742898930000e-02 -3.789755959246e-05 -2.262699990754e-05  1.217014505352e-05
H -7.405846435000e-01  3.179848704000e-01 -1.549867649000e-01  2.197600608394e-03  3.585995032103e-05 -4.081195620251e-05
3
step 1354
H  7.756882898000e-01  3.363449492000e-01 -1.743642265000e-01 -1.747659432160e-03  2.699664710720e-04 -1.297639410248e-04
O -3.109888480000e-02 -1.174963618000e-01  5.750862740000e-02 -2.642516381736e-06 -4.848805304758e-05  2.482155088544e-05
H -7.321018971000e-01  3.189430966000e-01 -1.555574252000e-01  1.655183787427e-03  4.165836174041e-04 -2.270911112820e-04
3
step 1355
H  7.680325099000e-01  3.376010236000e-01 -1.749693025000e-01 -1.738179104495e-03  3.090069524481e-04 -1.493148258906e-04
O -3.103173260000e-02 -1.177676831000e-01  5.764619690000e-02  3.324523036607e-05 -7.627803467577e-05  3.843687243796e-05
H -7.261005191000e-01  3.216302957000e-01 -1.569739859000e-01  1.075884166142e-03  8.187529111159e-04 -4.238567323408e-04
3
step 1356
H  7.604778929000e-01  3.390489964000e-01 -1.756708455000e-01 -1.701299412477e-03  3.579940018662e-04 -1.740152902203e-04
O -3.080796360000e-02 -1.181638529000e-01  5.784497940000e-02  6.808081310921e-05 -1.050455856879e-04  5.255306448289e-05
H -7.226870876000e-01  3.261078110000e-01 -1.592664959000e-01  4.858645130133e-04  1.226517560173e-03 -6.233775547858e-04
3
step 1357
H  7.531448385000e-01  3.407337449000e-01 -1.764920694000e-01 -1.637187760898e-03  4.173805671518e-04 -2.040912114073e-04
O -3.043597340000e-02 -1.186869123000e-01  5.810607640000e-02  1.001822029149e-04 -1.337529408204e-04  6.666365244638e-05
H -7.218488329000e-01  3.323632627000e-01 -1.624290164000e-01 -8.800915068697e-05  1.622947657402e-03 -8.173834262845e-04
3
step 1358
H  7.461512474000e-01  3.427013957000e-01 -1.774567997000e-01 -1.546862840118e-03  4.872393642326e-04 -2.395731604929e-04
O -2.993129270000e-02 -1.193342935000e-01  5.842833740000e-02  1.280630885949e-04 -1.613875257499e-04  8.027320078939e-05
H -7.234572350000e-01  3.403098446000e-01 -1.664192262000e-01 -6.211240375351e-04  1.991890996776e-03 -9.979734467901e-04
3
step 1359
H  7.396086052000e-01  3.449974622000e-01 -1.785885179000e-01 -1.432261221385e-03  5.671787199258e-04 -2.802538596004e-04
O -2.931532340000e-02 -1.200991767000e-01  5.880852830000e-02  1.505905223508e-04 -1.870622408966e-04  9.294633272170e-05
H -7.272841434000e-01  3.497938329000e-01 -1.711620476000e-01 -1.093553994905e-03  2.319646778503e-03 -1.158436180256e-03
3
step 1360
H  7.336178660000e-01  3.476646434000e-01 -1.799092354000e-01 -1.296242732365e-03  6.562818321058e-04 -3.256577800216e-04
O -2.861351040000e-02 -1.209712312000e-01  5.924168890000e-02  1.670751930235e-04 -2.100828521032e-04  1.043406918913e-04
H -7.330266690000e-01  3.606085286000e-01 -1.765564290000e-01 -1.491486164230e-03  2.596098250563e-03 -1.293806081412e-03
3
step 1361
H  7.282654896000e-01  3.507404303000e-01 -1.814382726000e-01 -1.142524638900e-03  7.530803674411e-04 -3.750282473443e-04
O -2.785328770000e-02 -1.219375623000e-01  5.972158920000e-02  1.772855962830e-04 -2.299732821383e-04  1.142194121513e-04
H -7.403357884000e-01  3.725116787000e-01 -1.824838406000e-01 -1.807513860538e-03  2.815148277484e-03 -1.401079380893e-03
3
step 1362
H  7.236199013000e-01  3.542546728000e-01 -1.831910195000e-01 -9.755463288345e-04  8.555695457898e-04 -4.273356693048e-04
O -2.706212580000e-02 -1.229836734000e-01  6.024119610000e-02  1.813979498647e-04 -2.464629489456e-04  1.224452437878e-04
H -7.488437982000e-01  3.852432298000e-01 -1.888169455000e-01 -2.039982897033e-03  2.974511893336e-03 -1.479116155509e-03
3
step 1363
H  7.197287129000e-01  3.582273183000e-01 -1.851777866000e-01 -8.002697043268e-04  9.612708775715e-04 -4.813100312317e-04
O -2.626591680000e-02 -1.240943017000e-01  6.079307880000e-02  1.799062174363e-04 -2.594499551487e-04  1.289630144819e-04
H -7.581871995000e-01  3.985409334000e-01 -1.954272386000e-01 -2.191768944568e-03  3.075070808456e-03 -1.528328492657e-03
3
step 1364
H  7.166169291000e-01  3.626665284000e-01 -1.874028505000e-01 -6.219332102141e-04  1.067341077673e-03 -5.354967083093e-04
O -2.548780870000e-02 -1.252540590000e-01  6.136972120000e-02  1.735180536959e-04 -2.689555788874e-04  1.337777935046e-04
H -7.680234533000e-01  4.121524519000e-01 -2.021909891000e-01 -2.268871624856e-03  3.120031544770e-03 -1.550270775290e-03
3
step 1365
H  7.142863215000e-01  3.675673693000e-01 -1.898637925000e-01 -4.457817319130e-04  1.170717424167e-03 -5.883307539390e-04
O -2.474750110000e-02 -1.264478688000e-01  6.196373680000e-02  1.630557958857e-04 -2.750812604349e-04  1.369340706802e-04
H -7.780415620000e-01  4.258435964000e-01 -2.089932939000e-01 -2.279108357242e-03  3.114081966682e-03 -1.547226474609e-03
3
step 1366
H  7.127159979000e-01  3.729112015000e-01 -1.925511947000e-01 -2.768019145620e-04  1.268283590670e-03 -6.382214683457e-04
O -2.406094580000e-02 -1.276612305000e-01  6.256799900000e-02  1.493740572832e-04 -2.779742052063e-04  1.384990264207e-04
H -7.879673950000e-01  4.394030516000e-01 -2.157304045000e-01 -2.231063584293e-03  3.062671101760e-03 -1.521854763827e-03
3
step 1367
H  7.118640930000e-01  3.786658210000e-01 -1.954487186000e-01 -1.194870247236e-04  1.357038486439e-03 -6.836383384918e-04
O -2.344036390000e-02 -1.288803558000e-01  6.317570930000e-02  1.332977211937e-04 -2.778033584299e-04  1.385509395960e-04
H -7.975650753000e-01  4.526443117000e-01 -2.223106874000e-01 -2.133335658219e-03  2.971462934777e-03 -1.476923112970e-03
3
step 1368
H  7.116703951000e-01  3.847863265000e-01 -1.985335531000e-01  2.234753177124e-05  1.434249911505e-03 -7.231891249639e-04
O -2.289448870000e-02 -1.300922224000e-01  6.378042580000e-02  1.155797274987e-04 -2.747447824261e-04  1.371721115815e-04
H -8.066357141000e-01  4.654056256000e-01 -2.286546116000e-01 -1.994052339229e-03  2.845961907884e-03 -1.415124182608e-03
3
step 1369
H  7.120596510000e-01  3.912166050000e-01 -2.017771767000e-01  1.456852049586e-04  1.497578038448e-03 -7.556825627768e-04
O -2.242895280000e-02 -1.312845828000e-01  6.437607020000e-02  9.687599142006e-05 -2.689743566741e-04  1.344453831343e-04
H -8.150145588000e-01  4.775486557000e-01 -2.346941066000e-01 -1.820598892456e-03  2.691282938433e-03 -1.338962517187e-03
3
step 1370
H  7.129452521000e-01  3.978912800000e-01 -2.051463537000e-01  2.483626594169e-04  1.545159949009e-03 -7.801710730672e-04
O -2.204674970000e-02 -1.324459538000e-01  6.495692570000e-02  7.773437362737e-05 -2.606652911723e-04  1.304529824931e-04
H -8.225673473000e-01  4.889564102000e-01 -2.403715581000e-01 -1.619501371297e-03  2.512032366528e-03 -1.250694993662e-03
3
step 1371
H  7.142330143000e-01  4.047379367000e-01 -2.086042705000e-01  3.290628994398e-04  1.575652286359e-03 -7.959721966483e-04
O -2.174871760000e-02 -1.335656035000e-01  6.551763360000e-02  5.859432826861e-05 -2.499884829783e-04  1.252767265045e-04
H -8.291864348000e-01  4.995308608000e-01 -2.456386447000e-01 -1.396416108623e-03  2.312268913868e-03 -1.152310804967e-03
3
step 1372
H  7.158248042000e-01  4.116794430000e-01 -2.121117194000e-01  3.872580626092e-04  1.588234697080e-03 -8.026700064578e-04
O -2.153400450000e-02 -1.346335443000e-01  6.605319290000e-02  3.979408405669e-05 -2.371139560834e-04  1.189987565579e-04
H -8.347870566000e-01  5.091905322000e-01 -2.504551592000e-01 -1.156186031853e-03  2.095518219621e-03 -1.045538412547e-03
3
step 1373
H  7.176218186000e-01  4.186362054000e-01 -2.156282472000e-01  4.231190185566e-04  1.582582272439e-03 -8.001008276639e-04
O -2.140048890000e-02 -1.356405321000e-01  6.655896380000e-02  2.158230953514e-05 -2.222123149995e-04  1.117022242401e-04
H -8.393039471000e-01  5.178682484000e-01 -2.547879056000e-01 -9.029335188349e-04  1.864819478627e-03 -9.318683740760e-04
3
step 1374
H  7.195274193000e-01  4.255282486000e-01 -2.191132138000e-01  4.374039867018e-04  1.558814362001e-03 -7.883270502399e-04
O -2.134514280000e-02 -1.365780721000e-01  6.703067290000e-02  4.132031861129e-06 -2.054557046751e-04  1.034716753018e-04
H -8.426884157000e-01  5.255091294000e-01 -2.586097204000e-01 -6.401684204009e-04  1.622788869000e-03 -8.125844218826e-04
3
step 1375
H  7.214494382000e-01  4.322770236000e-01 -2.225267119000e-01  4.313397946351e-04  1.517429116495e-03 -7.676037421699e-04
O -2.136433050000e-02 -1.374384267000e-01  6.746442010000e-02 -1.244490503005e-05 -1.870181213256e-04  9.439309536773e-05
H -8.449059105000e-01  5.320688925000e-01 -2.618986410000e-01 -3.708983044434e-04  1.371689671707e-03 -6.887976496762e-04
3
step 1376
H  7.233019725000e-01  4.388069143000e-01 -2.258303338000e-01  4.065089874161e-04  1.459233793340e-03 -7.383432056902e-04
O -2.145404520000e-02 -1.382146237000e-01  6.785668470000e-02 -2.808399020744e-05 -1.670754581432e-04  8.455381851615e-05
H -8.459340596000e-01  5.375124634000e-01 -2.646372268000e-01 -9.773433922808e-05  1.113502860974e-03 -5.614809963886e-04
3
step 1377
H  7.250067028000e-01  4.450464357000e-01 -2.289877798000e-01  3.647477702117e-04  1.385275953513e-03 -7.010799357819e-04
O -2.161008680000e-02 -1.389004647000e-01  6.820433070000e-02 -4.275538399435e-05 -1.458053955927e-04  7.404238100596e-05
H -8.457611608000e-01  5.418128944000e-01 -2.668120293000e-01  1.770094695689e-04  8.499961359547e-04 -4.315029712250e-04
3
step 1378
H  7.264937945000e-01  4.509291387000e-01 -2.319653196000e-01  3.080595792811e-04  1.296780747039e-03 -6.564387829543e-04
O -2.182818750000e-02 -1.394905325000e-01  6.850461220000e-02 -5.645265495311e-05 -1.233876162492e-04  6.294854413179e-05
H -8.443850913000e-01  5.449505798000e-01 -2.684132079000e-01  4.512238480848e-04  5.827905160607e-04 -2.996603045238e-04
3
step 1379
H  7.277024598000e-01  4.563942593000e-01 -2.347321214000e-01  2.385459451640e-04  1.195097143969e-03 -6.051075133588e-04
O -2.210409080000e-02 -1.399802008000e-01  6.875517860000e-02 -6.918294303086e-05 -1.000043944614e-04  5.136349992033e-05
H -8.418126069000e-01  5.469127573000e-01 -2.694342862000e-01  7.229177384067e-04  3.134249890169e-04 -1.667096432709e-04
3
step 1380
H  7.285812541000e-01  4.613871530000e-01 -2.372604733000e-01  1.583544423743e-04  1.081654550754e-03 -5.478147672872e-04
O -2.243359120000e-02 -1.403656475000e-01  6.895408210000e-02 -8.095853515331e-05 -7.584185338445e-05  3.938043793788e-05
H -8.380590080000e-01  5.476932883000e-01 -2.698720448000e-01  9.901363400228e-04  4.341992931880e-05 -3.339873465880e-05
3
step 1381
H  7.290881823000e-01  4.658595642000e-01 -2.395259197000e-01  6.964109725813e-05  9.579285686614e-04 -4.853125932701e-04
O -2.281253990000e-02 -1.406438750000e-01  6.909978760000e-02 -9.178947387096e-05 -5.109178882008e-05  2.709538635971e-05
H -8.331481564000e-01  5.472927149000e-01 -2.697265507000e-01  1.250881235663e-03 -2.256593461818e-04  9.950232635947e-05
3
step 1382
H  7.291906669000e-01  4.697697609000e-01 -2.415073298000e-01 -2.545271398579e-05  8.254177866622e-04 -4.183646868202e-04
O -2.323681930000e-02 -1.408127397000e-01  6.919118750000e-02 -1.016772173420e-04 -2.595425184841e-05  1.460845528990e-05
H -8.271128402000e-01  5.457185963000e-01 -2.690013234000e-01  1.503032830083e-03 -4.921382913264e-04  2.311694015563e-04
3
step 1383
H  7.288654516000e-01  4.730826013000e-01 -2.431869308000e-01 -1.248124516696e-04  6.856292455609e-04 -3.477389899356e-04
O -2.370229330000e-02 -1.408709946000e-01  6.922762270000e-02 -1.106088752650e-04 -6.409085339752e-07  2.025436621449e-06
H -8.199954692000e-01  5.429861284000e-01 -2.677036416000e-01  1.744270709022e-03 -7.541652280155e-04  3.606908814948e-04
3
step 1384
H  7.280984625000e-01  4.757695413000e-01 -2.445503120000e-01 -2.263549973580e-04  5.400700958664e-04 -2.742034811830e-04
O -2.420473150000e-02 -1.408183481000e-01  6.920891160000e-02 -1.185518836300e-04  2.462109755481e-05 -1.054029898671e-05
H -8.118491371000e-01  5.391190736000e-01 -2.658450022000e-01  1.971993499931e-03 -1.009641304332e-03  4.870331376925e-04
3
step 1385
H  7.268846722000e-01  4.778086278000e-01 -2.455864210000e-01 -3.280261535157e-04  3.902462950492e-04 -1.985255540372e-04
O -2.473971300000e-02 -1.406555411000e-01  6.913538700000e-02 -1.254491685700e-04  4.958470230557e-05 -2.296569943641e-05
H -8.027390174000e-01  5.341509945000e-01 -2.634417290000e-01  2.183239386345e-03 -1.256148491696e-03  6.090050605791e-04
3
step 1386
H  7.252279827000e-01  4.791844949000e-01 -2.462875624000e-01 -4.277960953335e-04  2.376644176684e-04 -1.214729173740e-04
O -2.530250770000e-02 -1.403844440000e-01  6.900794410000e-02 -1.312141730817e-04  7.397805748719e-05 -3.511561311599e-05
H -7.927441222000e-01  5.281268133000e-01 -2.605157420000e-01  2.374602864879e-03 -1.490873394950e-03  7.252205130650e-04
3
step 1387
H  7.231411291000e-01  4.798883733000e-01 -2.466494020000e-01 -5.236521804999e-04  8.383736001641e-05 -4.381652092877e-05
O -2.588793740000e-02 -1.400081765000e-01  6.882809850000e-02 -1.357262265730e-04  9.749939291333e-05 -4.684026112128e-05
H -7.819594257000e-01  5.211047117000e-01 -2.570954947000e-01  2.542153984291e-03 -1.710531825818e-03  8.340611177948e-04
3
step 1388
H  7.206456255000e-01  4.799181360000e-01 -2.466709905000e-01 -6.135929611531e-04 -6.970867077845e-05  3.366594329558e-05
O -2.649021600000e-02 -1.395312498000e-01  6.859805600000e-02 -1.388264446502e-04  1.198122762855e-04 -5.797279632617e-05
H -7.704983299000e-01  5.131583512000e-01 -2.532170691000e-01  2.681368842980e-03 -1.911302029310e-03  9.336431263302e-04
3
step 1389
H  7.177717212000e-01  4.792783691000e-01 -2.463547993000e-01 -6.956261314892e-04 -2.214277755952e-04  1.101868184530e-04
O -2.710277500000e-02 -1.389597275000e-01  6.832079220000e-02 -1.403149590743e-04  1.405421346399e-04 -6.832739269253e-05
H -7.584953969000e-01  5.043793567000e-01 -2.489254031000e-01  2.787084642068e-03 -2.088778662604e-03  1.021794445158e-03
3
step 1390
H  7.145583647000e-01  4.779804735000e-01 -2.457067715000e-01 -7.677698670735e-04 -3.697483798435e-04  1.849455299699e-04
O -2.771807930000e-02 -1.383013986000e-01  6.800013910000e-02 -1.399506754966e-04  1.592752304372e-04 -7.769848190839e-05
H -7.461092070000e-01  4.948799398000e-01 -2.442755860000e-01  2.853498538066e-03 -2.237965965931e-03  1.096050828024e-03
3
step 1391
H  7.110531475000e-01  4.760427879000e-01 -2.447363844000e-01 -8.280610389796e-04 -5.130701754454e-04  2.571270816764e-04
O -2.832745050000e-02 -1.375659473000e-01  6.764087100000e-02 -1.374551954017e-04  1.755619527031e-04 -8.586225268542e-05
H -7.335251016000e-01  4.847954424000e-01 -2.393341198000e-01  2.874236715693e-03 -2.353334009081e-03  1.153683068984e-03
3
step 1392
H  7.073121971000e-01  4.734907170000e-01 -2.434567129000e-01 -8.745711483960e-04 -6.497647013558e-04  3.259024809120e-04
O -2.892091740000e-02 -1.367650972000e-01  6.724877870000e-02 -1.325228586576e-04  1.889262744873e-04 -9.258142291309e-05
H -7.209574368000e-01  4.742864668000e-01 -2.341799766000e-01  2.842527044781e-03 -2.428966957302e-03  1.191770056585e-03
3
step 1393
H  7.033999809000e-01  4.703568496000e-01 -2.418844883000e-01 -9.054331997054e-04 -7.781826389247e-04  3.904325507640e-04
O -2.948712690000e-02 -1.359126979000e-01  6.683071280000e-02 -1.248390413447e-04  1.988837307203e-04 -9.761445485296e-05
H -7.086508153000e-01  4.635401232000e-01 -2.289052200000e-01  2.751512118045e-03 -2.458835330921e-03  1.207333701502e-03
3
step 1394
H  6.993889639000e-01  4.666810235000e-01 -2.400401293000e-01 -9.188784926957e-04 -8.966675524102e-04  4.498750563013e-04
O -3.001335450000e-02 -1.350247124000e-01  6.639457750000e-02 -1.141086195527e-04  2.049697768762e-04 -1.007299401667e-04
H -6.968796007000e-01  4.527697766000e-01 -2.236148830000e-01  2.594736463345e-03 -2.437224758715e-03  1.197550840289e-03
3
step 1395
H  6.953590911000e-01  4.625103225000e-01 -2.379477374000e-01 -9.132839327098e-04 -1.003577875627e-03  5.033959721607e-04
O -3.048566460000e-02 -1.341190555000e-01  6.594924870000e-02 -1.000965418332e-04  2.067799043231e-04 -1.017264747495e-04
H -6.859448862000e-01  4.422125420000e-01 -2.184257340000e-01  2.366838039792e-03 -2.359346182838e-03  1.160053981661e-03
3
step 1396
H  6.913970307000e-01  4.578989493000e-01 -2.356350294000e-01 -8.872319294082e-04 -1.097320317027e-03  5.501865781950e-04
O -3.088927580000e-02 -1.332152300000e-01  6.550439300000e-02 -8.268046916847e-05  2.040211375342e-04 -1.004578679551e-04
H -6.761679571000e-01  4.321236924000e-01 -2.134635232000e-01  2.064447180870e-03 -2.222121636984e-03  1.093318463499e-03
3
step 1397
H  6.875951329000e-01  4.529079302000e-01 -2.331331839000e-01 -8.395791176176e-04 -1.176394002124e-03  5.894860129296e-04
O -3.120918200000e-02 -1.323337145000e-01  6.507016560000e-02 -6.191187591511e-05  1.965706118236e-04 -9.686174809399e-05
H -6.678793939000e-01  4.227672776000e-01 -2.088583610000e-01  1.687229168415e-03 -2.025079221841e-03  9.971037125490e-04
3
step 1398
H  6.840500711000e-01  4.476046018000e-01 -2.304765759000e-01 -7.695317518813e-04 -1.239445792086e-03  6.206094630980e-04
O -3.143105210000e-02 -1.314950868000e-01  6.465677860000e-02 -3.807656108443e-05  1.845327386335e-04 -9.098760112508e-05
H -6.614034111000e-01  4.144027000000e-01 -2.047381029000e-01  1.238922486984e-03 -1.771213615000e-03  8.728778244508e-04
3
step 1399
H  6.808611414000e-01  4.420618313000e-01 -2.277023763000e-01 -6.767243327280e-04 -1.285336019702e-03  6.429816372861e-04
O -3.154238100000e-02 -1.307189118000e-01  6.427395440000e-02 -1.174005694373e-05  1.682814738388e-04 -8.301772425220e-05
H -6.570378743000e-01  4.072678034000e-01 -2.012200122000e-01  7.281380956822e-04 -1.467593921805e-03  7.241181591629e-04
3
step 1400
H  6.781282155000e-01  4.363569283000e-01 -2.248499946000e-01 -5.612971861742e-04 -1.313212476055e-03  6.561744357817e-04
O -3.153378660000e-02 -1.300224951000e-01  6.393031000000e-02  1.623984179346e-05  1.484718458818e-04 -7.327322768499e-05
H -6.550316457000e-01  4.015601304000e-01 -1.984015150000e-01  1.686329859617e-04 -1.125470308321e-03  5.563647397254e-04
3
step 1401
H  6.759493616000e-01  4.305702175000e-01 -2.219603480000e-01 -4.239685305657e-04 -1.322589018508e-03  6.599468647987e-04
O -3.140027000000e-02 -1.294196696000e-01  6.363275760000e-02  4.474864057230e-05  1.260086945054e-04 -6.219894110145e-05
H -6.555622067000e-01  3.974190771000e-01 -1.963513951000e-01 -4.211844357057e-04 -7.596940108954e-04  3.769343024039e-04
3
step 1402
H  6.744181665000e-01  4.247832625000e-01 -2.190749547000e-01 -2.660950381399e-04 -1.313422734242e-03  6.542842559055e-04
O -3.114220180000e-02 -1.289198227000e-01  6.338602170000e-02  7.250337956762e-05  1.019704579884e-04 -5.032591292684e-05
H -6.587173317000e-01  3.949122265000e-01 -1.951030515000e-01 -1.019595396288e-03 -3.874283791463e-04  1.942839226160e-04
3
step 1403
H  6.736208264000e-01  4.190767637000e-01 -2.162348602000e-01 -8.971370565022e-05 -1.286180937827e-03  6.394322653376e-04
O -3.076580990000e-02 -1.285273501000e-01  6.319236740000e-02  9.818274802173e-05  7.749998040711e-05 -3.821755904207e-05
H -6.644844465000e-01  3.940287824000e-01 -1.946512621000e-01 -1.603592709690e-03 -2.634819226161e-05  1.712213722191e-05
3
step 1404
H  6.736331030000e-01  4.135281953000e-01 -2.134794331000e-01  1.024456850087e-04 -1.241886310129e-03  6.159197657103e-04
O -3.028302760000e-02 -1.282416386000e-01  6.305158890000e-02  1.205732566067e-04  5.368569688043e-05 -2.641108961936e-05
H -6.727499948000e-01  3.946816597000e-01 -1.949532197000e-01 -2.151187221949e-03  3.072894477600e-04 -1.465430956637e-04
3
step 1405
H  6.745173045000e-01  4.082093084000e-01 -2.108450911000e-01  3.069805787657e-04 -1.182134204233e-03  5.845675446872e-04
O -2.971070170000e-02 -1.280575591000e-01  6.296125010000e-02  1.386998728598e-04  3.146071896519e-05 -1.536778546975e-05
H -6.833089804000e-01  3.967178002000e-01 -1.959336263000e-01 -2.643498293597e-03  6.002637814390e-04 -2.902027451541e-04
3
step 1406
H  6.763194179000e-01  4.031836166000e-01 -2.083640199000e-01  5.198813102037e-04 -1.109068117294e-03  5.464757255083e-04
O -2.906929760000e-02 -1.279663332000e-01  6.291710900000e-02  1.519135563864e-04  1.153925164388e-05 -5.441764202610e-06
H -6.958826273000e-01  3.999344270000e-01 -1.974927158000e-01 -3.066207825672e-03  8.433762073356e-04 -4.093322971332e-04
3
step 1407
H  6.790666637000e-01  3.985041139000e-01 -2.060630104000e-01  7.366433451737e-04 -1.025310512590e-03  5.029884695048e-04
O -2.838134180000e-02 -1.279565818000e-01  6.291363050000e-02  1.599233383417e-04 -5.603039244480e-06  3.129632648160e-06
H -7.101406447000e-01  4.040979872000e-01 -1.995155971000e-01 -3.410182993838e-03  1.031698319790e-03 -5.015132110645e-04
3
step 1408
H  6.827656107000e-01  3.942113652000e-01 -2.039624860000e-01  9.524207393780e-04 -9.338531011140e-04  4.556380084211e-04
O -2.766984600000e-02 -1.280153641000e-01  6.294449570000e-02  1.627762957522e-04 -1.971128227014e-05  1.021718666641e-05
H -7.257243374000e-01  4.089625766000e-01 -2.018813400000e-01 -3.671316298946e-03  1.164185570133e-03 -5.662416452870e-04
3
step 1409
H  6.874010738000e-01  3.903321848000e-01 -2.020758292000e-01  1.162216393735e-03 -8.379108977631e-04  4.060702509197e-04
O -2.695692470000e-02 -1.281290706000e-01  6.300303870000e-02  1.607994720232e-04 -3.071096051987e-05  1.578011513224e-05
H -7.422674711000e-01  4.142855016000e-01 -2.044706447000e-01 -3.849800615563e-03  1.242888969891e-03 -6.045391059143e-04
3
step 1410
H  6.929358933000e-01  3.868790038000e-01 -2.004090606000e-01  1.361092641681e-03 -7.407557033264e-04  3.559598574347e-04
O -2.626272760000e-02 -1.282841085000e-01  6.308258380000e-02  1.545227088282e-04 -3.865981980184e-05  1.984269935119e-05
H -7.594130381000e-01  4.198388060000e-01 -2.071715197000e-01 -3.949116009695e-03  1.272017449346e-03 -6.184891182034e-04
3
step 1411
H  6.993116758000e-01  3.838500056000e-01 -1.989609081000e-01  1.544385388161e-03 -6.455451068649e-04  3.069229518043e-04
O -2.560473280000e-02 -1.284673736000e-01  6.317667750000e-02  1.445986713876e-04 -4.370323711938e-05  2.247244427817e-05
H -7.768252574000e-01  4.254166275000e-01 -2.098828977000e-01 -3.974969154955e-03  1.257047480522e-03 -6.107970410412e-04
3
step 1412
H  7.064504470000e-01  3.812299902000e-01 -1.977232499000e-01  1.707899041157e-03 -5.551667598987e-04  2.604376356486e-04
O -2.499737860000e-02 -1.286665452000e-01  6.327923480000e-02  1.317317598269e-04 -4.603850265113e-05  2.376255776358e-05
H -7.941970592000e-01  4.308389332000e-01 -2.125164611000e-01 -3.934351197791e-03  1.203993559259e-03 -5.844300984191e-04
3
step 1413
H  7.142570990000e-01  3.789918718000e-01 -1.966818796000e-01  1.848066790245e-03 -4.721118960366e-04  2.177793494503e-04
O -2.445197910000e-02 -1.288702458000e-01  6.338461810000e-02  1.166212821453e-04 -4.588909400030e-05  2.381934822671e-05
H -8.112538404000e-01  4.359524922000e-01 -2.149971081000e-01 -3.834792542642e-03  1.118876498561e-03 -5.423559074364e-04
3
step 1414
H  7.226224453000e-01  3.770986500000e-01 -1.958175140000e-01  1.962062971629e-03 -3.983885271380e-04  1.799764832927e-04
O -2.397685320000e-02 -1.290681099000e-01  6.348767240000e-02  9.992014125665e-05 -4.348776338777e-05  2.275405165599e-05
H -8.277544278000e-01  4.406299585000e-01 -2.172624903000e-01 -3.683823653373e-03  1.007376533208e-03 -4.873725320178e-04
3
step 1415
H  7.314266511000e-01  3.755056674000e-01 -1.951069477000e-01  2.047861481316e-03 -3.354781922368e-04  1.477881708013e-04
O -2.357760140000e-02 -1.292507970000e-01  6.358373340000e-02  8.220838244509e-05 -3.906644024922e-05  2.067800003147e-05
H -8.434901157000e-01  4.447678076000e-01 -2.192619907000e-01 -3.488617566815e-03  8.746369757833e-04 -4.220122490406e-04
3
step 1416
H  7.405427999000e-01  3.741629592000e-01 -1.945242545000e-01  2.104241530046e-03 -2.843338731526e-04  1.217030915346e-04
O -2.325746700000e-02 -1.294099712000e-01  6.366862070000e-02  6.397941628381e-05 -3.285074142941e-05  1.770013925608e-05
H -8.582825005000e-01  4.482837012000e-01 -2.209554203000e-01 -3.255781321284e-03  7.251797532002e-04 -3.484999839700e-04
3
step 1417
H  7.498403744000e-01  3.730175285000e-01 -1.940419525000e-01  2.130747299387e-03 -2.454124396533e-04  1.019558672642e-04
O -2.301773260000e-02 -1.295382661000e-01  6.373862320000e-02  4.563654465322e-05 -2.505748454244e-05  1.392584525921e-05
H -8.719806931000e-01  4.511136852000e-01 -2.223116321000e-01 -2.991261889382e-03  5.628978233663e-04 -2.687495900407e-04
3
step 1418
H  7.591884690000e-01  3.720154125000e-01 -1.936320626000e-01  2.127614841843e-03 -2.187304525769e-04  8.855542063847e-05
O -2.285811230000e-02 -1.296292433000e-01  6.379048250000e-02  2.749686897061e-05 -1.589393832303e-05  9.456526317149e-06
H -8.844583305000e-01  4.532094878000e-01 -2.233071848000e-01 -2.700332277495e-03  3.910956882116e-04 -1.843841070576e-04
3
step 1419
H  7.684586320000e-01  3.711034697000e-01 -1.932670248000e-01  2.095675389879e-03 -2.039350970571e-04  8.132107259792e-05
O -2.277711400000e-02 -1.296773502000e-01  6.382137500000e-02  9.799842585211e-06 -5.557744919048e-06  4.389513348389e-06
H -8.956106664000e-01  4.545360717000e-01 -2.239251341000e-01 -2.387628916812e-03  2.125568072230e-04 -9.676947730449e-05
3
step 1420
H  7.775272319000e-01  3.702308244000e-01 -1.929204410000e-01  2.036247173378e-03 -2.003810900853e-04  7.992177551605e-05
O -2.277235620000e-02 -1.296778778000e-01  6.382889410000e-02 -7.281530200916e-06  5.762792133725e-06 -1.181953799435e-06
H -9.053519102000e-01  4.550695225000e-01 -2.241539918000e-01 -2.057219392256e-03  2.962276309433e-05 -7.054020950194e-06
3
step 1421
H  7.862773526000e-01  3.693499818000e-01 -1.925676482000e-01  1.951029275782e-03 -2.072043609252e-04  8.391374648046e-05
O -2.284083300000e-02 -1.296269214000e-01  6.381103200000e-02 -2.362868604000e-05  1.788823252454e-05 -7.168575505613e-06
H -9.136129099000e-01  4.547952936000e-01 -2.239868622000e-01 -1.712686416862e-03 -1.557256070821e-04  8.379134803944e-05
3
step 1422
H  7.946002307000e-01  3.684176277000e-01 -1.921861316000e-01  1.842002589037e-03 -2.233890806811e-04  9.277475458068e-05
O -2.297912520000e-02 -1.295213421000e-01  6.376616360000e-02 -3.916545330636e-05  3.064729522926e-05 -1.348474096976e-05
H -9.203392266000e-01  4.537068043000e-01 -2.234207534000e-01 -1.357219650028e-03 -3.417897546749e-04  1.749343321501e-04
3
step 1423
H  8.023962844000e-01  3.673951565000e-01 -1.917557981000e-01  1.711343727402e-03 -2.478247681614e-04  1.059333526380e-04
O -2.318356070000e-02 -1.293587341000e-01  6.369303020000e-02 -5.384669766056e-05  4.387585288397e-05 -2.004813967436e-05
H -9.254896202000e-01  4.518043717000e-01 -2.224560529000e-01 -9.937107063574e-04 -5.270796339654e-04  2.656449197814e-04
3
step 1424
H  8.095757976000e-01  3.662489714000e-01 -1.912591337000e-01  1.561354770739e-03 -2.793521007309e-04  1.227923768650e-04
O -2.345032500000e-02 -1.291373948000e-01  6.359072700000e-02 -6.764780868298e-05  5.741555590530e-05 -2.677908944351e-05
H -9.290349555000e-01  4.490944543000e-01 -2.210961571000e-01 -6.248493529572e-04 -7.102448121707e-04  3.552615002095e-04
3
step 1425
H  8.160593332000e-01  3.649506119000e-01 -1.906812709000e-01  1.394409463502e-03 -3.167974027233e-04  1.427466550318e-04
O -2.377553070000e-02 -1.288563041000e-01  6.345869270000e-02 -8.055529726731e-05  7.111193094239e-05 -3.359969994467e-05
H -9.309575301000e-01  4.455891862000e-01 -2.193472430000e-01 -2.532202506964e-04 -8.900099173737e-04  4.431591497883e-04
3
step 1426
H  8.217779472000e-01  3.634767518000e-01 -1.900099912000e-01  1.212915613451e-03 -3.589968307559e-04  1.651954213802e-04
O -2.415524550000e-02 -1.285151110000e-01  6.329670390000e-02 -9.255826150962e-05  8.481209079141e-05 -4.043276192856e-05
H -9.312508264000e-01  4.413061866000e-01 -2.172181755000e-01  1.185994269017e-04 -1.065113409591e-03  5.287195545799e-04
3
step 1427
H  8.266732728000e-01  3.618091150000e-01 -1.892356845000e-01  1.019289461894e-03 -4.048118649459e-04  1.895503433508e-04
O -2.458548630000e-02 -1.281141334000e-01  6.310487510000e-02 -1.036403828367e-04  9.836184093427e-05 -4.720040791778e-05
H -9.299196944000e-01  4.362686291000e-01 -2.147205424000e-01  4.879382242711e-04 -1.234246498112e-03  6.113010518305e-04
3
step 1428
H  8.306975098000e-01  3.599343383000e-01 -1.883512807000e-01  8.159457462729e-04 -4.531367231195e-04  2.152392743974e-04
O -2.506217820000e-02 -1.276543697000e-01  6.288366420000e-02 -1.137727814879e-04  1.116024341081e-04 -5.382252148868e-05
H -9.269809937000e-01  4.305055855000e-01 -2.118688236000e-01  8.519264768907e-04 -1.395993873541e-03  6.902095673689e-04
3
step 1429
H  8.338134223000e-01  3.578438220000e-01 -1.873521762000e-01  6.052991354616e-04 -5.028996361290e-04  2.417069304995e-04
O -2.558108520000e-02 -1.271375267000e-01  6.263388680000e-02 -1.229073382420e-04  1.243669271951e-04 -6.021495914115e-05
H -9.224646859000e-01  4.240526147000e-01 -2.086806806000e-01  1.207388814397e-03 -1.548774682100e-03  7.646697861272e-04
3
step 1430
H  8.359943403000e-01  3.555335817000e-01 -1.862361602000e-01  3.897695595894e-04 -5.530592870214e-04  2.684130297534e-04
O -2.613771140000e-02 -1.265660639000e-01  6.235673730000e-02 -1.309696504614e-04  1.364758981688e-04 -6.628747962254e-05
H -9.164154178000e-01  4.169526221000e-01 -2.051773780000e-01  1.550727041682e-03 -1.690778110687e-03  8.337936394674e-04
3
step 1431
H  8.372242041000e-01  3.530041301000e-01 -1.850033568000e-01  1.717970018893e-04 -6.025974425396e-04  2.948285121315e-04
O -2.672716990000e-02 -1.259432582000e-01  6.205382070000e-02 -1.378525549445e-04  1.477329984824e-04 -7.194150412344e-05
H -9.088946380000e-01  4.092570127000e-01 -2.013843484000e-01  1.877801698963e-03 -1.819900416384e-03  8.965495193018e-04
3
step 1432
H  8.374976955000e-01  3.502603931000e-01 -1.836561852000e-01 -4.613938525909e-05 -6.505090934132e-04  3.204304062167e-04
O -2.734402670000e-02 -1.252732871000e-01  6.172719410000e-02 -1.434098930420e-04  1.579203957535e-04 -7.706783990534e-05
H -8.999832164000e-01  4.010271012000e-01 -1.973318838000e-01  2.183814206943e-03 -1.933683007300e-03  9.517317619041e-04
3
step 1433
H  8.368204492000e-01  3.473116778000e-01 -1.821993457000e-01 -2.615001073235e-04 -6.957897103296e-04  3.446952652047e-04
O -2.798211610000e-02 -1.245613339000e-01  6.137941810000e-02 -1.474507831578e-04  1.667941478823e-04 -8.154430793662e-05
H -8.897845929000e-01  3.923358070000e-01 -1.930559674000e-01  2.463194506351e-03 -2.029253133469e-03  9.979311144914e-04
3
step 1434
H  8.352093695000e-01  3.441717008000e-01 -1.806398379000e-01 -4.716642277496e-04 -7.374218005385e-04  3.670922372246e-04
O -2.863433390000e-02 -1.238137107000e-01  6.101361900000e-02 -1.497355113939e-04  1.740804273822e-04 -8.523381391830e-05
H -8.784283800000e-01  3.832695838000e-01 -1.885992231000e-01  2.709515218590e-03 -2.103279552442e-03  1.033512337183e-03
3
step 1435
H  8.326930264000e-01  3.408586729000e-01 -1.789870077000e-01 -6.739114815251e-04 -7.743613090404e-04  3.870760442382e-04
O -2.929241640000e-02 -1.230379970000e-01  6.063355700000e-02 -1.499743202281e-04  1.794733867092e-04 -8.798330608953e-05
H -8.660742618000e-01  3.739305018000e-01 -1.840119437000e-01  2.915455072934e-03 -2.151954651992e-03  1.056605001518e-03
3
step 1436
H  8.293121285000e-01  3.373954469000e-01 -1.772526264000e-01 -8.654081735552e-04 -8.055243443191e-04  4.040801757778e-04
O -2.994672390000e-02 -1.222431813000e-01  6.024369780000e-02 -1.478310836207e-04  1.826359719047e-04 -8.962420947527e-05
H -8.529159176000e-01  3.644383342000e-01 -1.793531210000e-01  3.072843839741e-03 -2.171020907232e-03  1.065116211631e-03
3
step 1437
H  8.251200427000e-01  3.338097186000e-01 -1.754509970000e-01 -1.043201675144e-03 -8.297759976046e-04  4.175112300131e-04
O -3.058605150000e-02 -1.214397925000e-01  5.984927660000e-02 -1.429343734759e-04  1.832053072681e-04 -8.997528277939e-05
H -8.391845273000e-01  3.549324079000e-01 -1.746913620000e-01  3.172832391017e-03 -2.155865030091e-03  1.056777000194e-03
3
step 1438
H  8.201833157000e-01  3.301342721000e-01 -1.735990837000e-01 -1.204226750299e-03 -8.459226864000e-04  4.267450832281e-04
O -3.119750900000e-02 -1.206399947000e-01  5.945634520000e-02 -1.348989846167e-04  1.808046577389e-04 -8.884864757177e-05
H -8.251512068000e-01  3.455728658000e-01 -1.701055138000e-01  3.206239952332e-03 -2.101707982423e-03  1.029236322482e-03
3
step 1439
H  8.145821374000e-01  3.264072479000e-01 -1.717166511000e-01 -1.345328205178e-03 -8.527103032145e-04  4.311261218889e-04
O -3.176652080000e-02 -1.198576134000e-01  5.907178300000e-02 -1.233610905684e-04  1.750636785551e-04 -8.605982169681e-05
H -8.111274748000e-01  3.365408551000e-01 -1.656847567000e-01  3.164134093261e-03 -2.003921400905e-03  9.802170473102e-04
3
step 1440
H  8.084106647000e-01  3.226724046000e-01 -1.698264003000e-01 -1.463305153934e-03 -8.488309852575e-04  4.299709543189e-04
O -3.227701290000e-02 -1.191080536000e-01  5.870325590000e-02 -1.080296493495e-04  1.656485429047e-04 -8.144241513127e-05
H -7.974626127000e-01  3.280370205000e-01 -1.615278647000e-01  3.038690729898e-03 -1.858497256550e-03  9.077464603040e-04
3
step 1441
H  8.017770978000e-01  3.189793274000e-01 -1.679540763000e-01 -1.554982002224e-03 -8.329417276680e-04  4.225782886921e-04
O -3.271186290000e-02 -1.184080619000e-01  5.835909950000e-02 -8.875424668280e-05  1.523023863893e-04 -7.486783568996e-05
H -7.845366062000e-01  3.202775823000e-01 -1.577412807000e-01  2.824343450652e-03 -1.662677902469e-03  8.104653340209e-04
3
step 1442
H  7.948033825000e-01  3.153835272000e-01 -1.661285170000e-01 -1.617310399435e-03 -8.036977657392e-04  4.082464720716e-04
O -3.305368050000e-02 -1.177752912000e-01  5.804810510000e-02 -6.560462732732e-05  1.348941256130e-04 -6.626909951530e-05
H -7.727474468000e-01  3.134873168000e-01 -1.544356729000e-01  2.519149024287e-03 -1.415708858345e-03  6.879974362138e-04
3
step 1443
H  7.876243945000e-01  3.119463571000e-01 -1.643816073000e-01 -1.647508239105e-03 -7.598050960399e-04  3.863009668637e-04
O -3.328595350000e-02 -1.172276352000e-01  5.777919420000e-02 -3.894950418774e-05  1.134699279677e-04 -5.566620028773e-05
H -7.624921249000e-01  3.078890467000e-01 -1.517207768000e-01  2.126177797205e-03 -1.119610733793e-03  5.413290166506e-04
3
step 1444
H  7.803864250000e-01  3.087346513000e-01 -1.627480880000e-01 -1.643233943111e-03 -7.000930140728e-04  3.561322035086e-04
O -3.339451840000e-02 -1.167823425000e-01  5.756098330000e-02 -9.514880072166e-06  8.829677810986e-05 -4.318781704197e-05
H -7.541417644000e-01  3.036898664000e-01 -1.496986299000e-01  1.654613080755e-03 -7.797968337886e-04  3.731146409451e-04
3
step 1445
H  7.732448404000e-01  3.058200076000e-01 -1.612651781000e-01 -1.602793314442e-03 -6.236074775398e-04  3.172441522335e-04
O -3.336921600000e-02 -1.164549708000e-01  5.740126780000e-02  2.160255462216e-05  5.988434576242e-05 -2.908265946082e-05
H -7.480129946000e-01  3.010652278000e-01 -1.484557382000e-01  1.120169048405e-03 -4.053203370594e-04  1.878027201532e-04
3
step 1446
H  7.663607573000e-01  3.032776088000e-01 -1.599719589000e-01 -1.525371795746e-03 -5.297244267195e-04  2.693131567656e-04
O -3.320547950000e-02 -1.162583087000e-01  5.730648780000e-02  5.298786532348e-05  2.897276735489e-05 -1.371391864603e-05
H -7.443394282000e-01  3.001430033000e-01 -1.480552124000e-01  5.444895997355e-04 -8.561208027338e-06 -8.515118342876e-06
3
step 1447
H  7.598966702000e-01  3.011845136000e-01 -1.589084819000e-01 -1.411271847435e-03 -4.182758900126e-04  2.122533457560e-04
O -3.290553170000e-02 -1.162014369000e-01  5.728126050000e-02  8.303218241663e-05 -3.518718628661e-06  2.465759264960e-06
H -7.432482941000e-01  3.009903107000e-01 -1.485302520000e-01 -4.658767977701e-05  3.957177526556e-04 -2.085671537703e-04
3
step 1448
H  7.540110489000e-01  2.996173747000e-01 -1.581145798000e-01 -1.262127571204e-03 -2.896777761973e-04  1.462827527124e-04
O -3.247888440000e-02 -1.162891001000e-01  5.732806500000e-02  1.101128866315e-04 -3.657576430569e-05  1.895545349843e-05
H -7.447471061000e-01  3.036058364000e-01 -1.498803345000e-01 -6.256757035629e-04  7.918297108440e-04 -4.046198680187e-04
3
step 1449
H  7.488520883000e-01  2.986496115000e-01 -1.576283959000e-01 -1.081056225926e-03 -1.450404887575e-04  7.198044014766e-05
O -3.194195970000e-02 -1.165215028000e-01  5.744713520000e-02  1.327920739761e-04 -6.918755977005e-05  3.525454039754e-05
H -7.487234351000e-01  3.079194265000e-01 -1.520709854000e-01 -1.166835779556e-03  1.164836658348e-03 -5.893031489182e-04
3
step 1450
H  7.445509799000e-01  2.983481595000e-01 -1.574846958000e-01 -8.727109773247e-04  1.375689545981e-05 -9.675451175585e-06
O -3.131685220000e-02 -1.168945442000e-01  5.763656920000e-02  1.499876036381e-04 -1.004370377764e-04  5.090719695976e-05
H -7.549578118000e-01  3.137990483000e-01 -1.550371879000e-01 -1.648238168427e-03  1.502053848251e-03 -7.563534572604e-04
3
step 1451
H  7.412151996000e-01  2.987699948000e-01 -1.577130635000e-01 -6.431996205126e-04  1.840502939586e-04 -9.729972579967e-05
O -3.062945340000e-02 -1.174004037000e-01  5.789261220000e-02  1.610790544352e-04 -1.295639173709e-04  6.553357525400e-05
H -7.631467801000e-01  3.210635468000e-01 -1.586896568000e-01 -2.053925193425e-03  1.794067584776e-03 -9.011173713430e-04
3
step 1452
H  7.389224911000e-01  2.999587404000e-01 -1.583361429000e-01 -3.998521751648e-04  3.624485472429e-04 -1.891306771869e-04
O -2.990728720000e-02 -1.180283276000e-01  5.821003810000e-02  1.659328654737e-04 -1.559926511618e-04  7.884361606999e-05
H -7.729312286000e-01  3.294985122000e-01 -1.629226543000e-01 -2.374443285689e-03  2.035126014263e-03 -1.020745115191e-03
3
step 1453
H  7.377161872000e-01  3.019416969000e-01 -1.593681016000e-01 -1.508473821782e-04  5.449697588959e-04 -2.831012769239e-04
O -2.917741390000e-02 -1.187654588000e-01  5.858255410000e-02  1.648540432284e-04 -1.793287684967e-04  9.063539877682e-05
H -7.839249754000e-01  3.388724564000e-01 -1.676219575000e-01 -2.606451941866e-03  2.222952179223e-03 -1.114098786012e-03
3
step 1454
H  7.376024611000e-01  3.047276427000e-01 -1.608134957000e-01  9.526932046980e-05  7.272480980700e-04 -3.769467584576e-04
O -2.846468820000e-02 -1.195975915000e-01  5.900316720000e-02  1.584875415940e-04 -1.993348135658e-04  1.007836634694e-04
H -7.957396772000e-01  3.489510445000e-01 -1.726718710000e-01 -2.751642639204e-03  2.358158030724e-03 -1.181464617064e-03
3
step 1455
H  7.385498666000e-01  3.083056742000e-01 -1.626666742000e-01  3.301149903080e-04  9.047871944742e-04 -4.683361804497e-04
O -2.779052660000e-02 -1.205097909000e-01  5.946448830000e-02  1.476980209692e-04 -2.158983573423e-04  1.092246534365e-04
H -8.080039536000e-01  3.595081432000e-01 -1.779606768000e-01 -2.815359714997e-03  2.443478278228e-03 -1.224177257367e-03
3
step 1456
H  7.404912198000e-01  3.126452229000e-01 -1.649117955000e-01  5.459802396880e-04  1.073228997152e-03 -5.550118340159e-04
O -2.717221750000e-02 -1.214868673000e-01  5.995896650000e-02  1.334519751351e-04 -2.290012482703e-04  1.159416112862e-04
H -8.203762286000e-01  3.703333488000e-01 -1.833843586000e-01 -2.805239018180e-03  2.483003407514e-03 -1.244242922366e-03
3
step 1457
H  7.433276114000e-01  3.176972490000e-01 -1.675234523000e-01  7.362581994201e-04  1.228603105824e-03 -6.349183148693e-04
O -2.662271980000e-02 -1.225137270000e-01  6.047906610000e-02  1.167184119385e-04 -2.386945767399e-04  1.209529491228e-04
H -8.325519412000e-01  3.812363227000e-01 -1.888487543000e-01 -2.730057500202e-03  2.481524528819e-03 -1.244016656435e-03
3
step 1458
H  7.469340423000e-01  3.233964400000e-01 -1.704678166000e-01  8.957424721512e-04  1.367525606076e-03 -7.063053668995e-04
O -2.615084210000e-02 -1.235756275000e-01  6.101739740000e-02  9.839571225847e-05 -2.450799110135e-04  1.243032984728e-04
H -8.442663204000e-01  3.920485869000e-01 -1.942704560000e-01 -2.598868527203e-03  2.444035939183e-03 -1.225956658358e-03
3
step 1459
H  7.511660433000e-01  3.296641442000e-01 -1.737041646000e-01  1.020774744601e-03  1.487329206548e-03 -7.677949345960e-04
O -2.576168200000e-02 -1.246583637000e-01  6.156681510000e-02  7.926542604643e-05 -2.482956984145e-04  1.260568914341e-04
H -8.552940291000e-01  4.026235070000e-01 -1.995768130000e-01 -2.420417076284e-03  2.375394466523e-03 -1.192455418375e-03
3
step 1460
H  7.558666023000e-01  3.364117084000e-01 -1.771866096000e-01  1.109249477437e-03  1.586120221387e-03 -8.184103764937e-04
O -2.545720900000e-02 -1.257484048000e-01  6.212049160000e-02  5.996981486091e-05 -2.485072776295e-04  1.262926056817e-04
H -8.654468215000e-01  4.128351058000e-01 -2.047053533000e-01 -2.202788593643e-03  2.280111039858e-03 -1.145736156960e-03
3
step 1461
H  7.608728249000e-01  3.435439096000e-01 -1.808658816000e-01  1.160498134827e-03  1.662767311794e-03 -8.575703628495e-04
O -2.523690030000e-02 -1.268329925000e-01  6.267197200000e-02  4.100811276596e-05 -2.458991993795e-04  1.251000973766e-04
H -8.745701145000e-01  4.225762230000e-01 -2.096028809000e-01 -1.953235130915e-03  2.162244079200e-03 -1.087799823732e-03
3
step 1462
H  7.660218488000e-01  3.509621945000e-01 -1.846910064000e-01  1.175090820067e-03  1.716837345356e-03 -8.850553608581e-04
O -2.509835670000e-02 -1.279002109000e-01  6.321521310000e-02  2.274581923293e-05 -2.406690098209e-04  1.225765283090e-04
H -8.825391233000e-01  4.317563958000e-01 -2.142244339000e-01 -1.678125644376e-03  2.025364833440e-03 -1.020407645269e-03
3
step 1463
H  7.711557686000e-01  3.585675499000e-01 -1.886107931000e-01  1.154595286368e-03  1.748496771519e-03 -9.009564345572e-04
O -2.503785690000e-02 -1.289390305000e-01  6.374461040000e-02  5.431986771779e-06 -2.330221355636e-04  1.188239375574e-04
H -8.892549977000e-01  4.402997148000e-01 -2.185322285000e-01 -1.382978856073e-03  1.872572821290e-03 -9.450884753273e-04
3
step 1464
H  7.761254409000e-01  3.662628789000e-01 -1.925750645000e-01  1.101329827030e-03  1.758398360637e-03 -9.056163974019e-04
O -2.505082260000e-02 -1.299393329000e-01  6.425501350000e-02 -1.078021858091e-05 -2.231675869044e-04  1.139469239762e-04
H -8.946412463000e-01  4.481428406000e-01 -2.224946811000e-01 -1.072542798863e-03  1.706537386498e-03 -8.631592456175e-04
3
step 1465
H  7.807932472000e-01  3.739548808000e-01 -1.965356294000e-01  1.018132132227e-03  1.747566068894e-03 -8.995700232058e-04
O -2.513219210000e-02 -1.308919176000e-01  6.474173310000e-02 -2.581232597190e-05 -2.113144381345e-04  1.080507400769e-04
H -8.986405678000e-01  4.552332225000e-01 -2.260855322000e-01 -7.508995204078e-04  1.529555082554e-03 -7.757533976097e-04
3
step 1466
H  7.850348760000e-01  3.815554190000e-01 -2.004469904000e-01  9.081571352540e-04  1.717286732350e-03 -8.834878179152e-04
O -2.527670020000e-02 -1.317884958000e-01  6.520054010000e-02 -3.964053862470e-05 -1.976692357660e-04  1.012398292991e-04
H -9.012121916000e-01  4.615276177000e-01 -2.292831169000e-01 -4.215805473576e-04  1.343616327426e-03 -6.838537710841e-04
3
step 1467
H  7.887403169000e-01  3.889824535000e-01 -2.042668237000e-01  7.747166059752e-04  1.669018408662e-03 -8.581284123425e-04
O -2.547907710000e-02 -1.326216746000e-01  6.562765910000e-02 -5.227847363443e-05 -1.824343072514e-04  9.361680209961e-05
H -9.023297201000e-01  4.669908933000e-01 -2.320697759000e-01 -8.768051656375e-05  1.150470165902e-03 -5.883245099135e-04
3
step 1468
H  7.918142390000e-01  3.961606070000e-01 -2.079562705000e-01  6.211583202519e-04  1.604316157293e-03 -8.243002112339e-04
O -2.573417690000e-02 -1.333849356000e-01  6.601975880000e-02 -6.376266266411e-05 -1.658070204769e-04  8.528193771063e-05
H -9.019794632000e-01  4.715951119000e-01 -2.344314064000e-01  2.480335407647e-04  9.516881771434e-04 -4.899424787446e-04
3
step 1469
H  7.941759274000e-01  4.030214473000e-01 -2.114800812000e-01  4.507824969598e-04  1.524776058120e-03 -7.828324723693e-04
O -2.603704920000e-02 -1.340726129000e-01  6.637394130000e-02 -7.414078154522e-05 -1.479800854500e-04  7.633323442085e-05
H -9.001592369000e-01  4.753188929000e-01 -2.363571474000e-01  5.830189852275e-04  7.487260007339e-04 -3.894276283431e-04
3
step 1470
H  7.957589307000e-01  4.095035640000e-01 -2.148066536000e-01  2.667905430431e-04  1.431996316546e-03 -7.345552808852e-04
O -2.638296540000e-02 -1.346798746000e-01  6.668773300000e-02 -8.346231166568e-05 -1.291428113329e-04  6.686696724110e-05
H -8.968776010000e-01  4.781470372000e-01 -2.378391961000e-01  9.148602063178e-04  5.429831303099e-04 -2.874725198697e-04
3
step 1471
H  7.965105487000e-01  4.155525106000e-01 -2.179080019000e-01  7.226084534489e-05  1.327553878123e-03 -6.802875274679e-04
O -2.676740830000e-02 -1.352027113000e-01  6.695907840000e-02 -9.177116232916e-05 -1.094833096782e-04  5.697876209610e-05
H -8.921535101000e-01  4.800704107000e-01 -2.388727519000e-01  1.241176260212e-03  3.358618021247e-04 -1.847714834733e-04
3
step 1472
H  7.963912684000e-01  4.211206761000e-01 -2.207596899000e-01 -1.298587167381e-04  1.212989303008e-03 -6.208291558893e-04
O -2.718603330000e-02 -1.356379373000e-01  6.718634070000e-02 -9.909955928945e-05 -8.919121876212e-05  4.676491228079e-05
H -8.860163592000e-01  4.810860849000e-01 -2.394560879000e-01  1.559530509671e-03  1.288254813641e-04 -8.204955290368e-05
3
step 1473
H  7.953741856000e-01  4.261670950000e-01 -2.233407320000e-01 -3.367372410098e-04  1.089808269839e-03 -5.569619720782e-04
O -2.763460520000e-02 -1.359832027000e-01  6.736830720000e-02 -1.054634920057e-04 -6.846158438813e-05  3.632433486070e-05
H -8.785064251000e-01  4.811977322000e-01 -2.395907483000e-01  1.867345090944e-03 -7.654046201631e-05  1.990733369993e-05
3
step 1474
H  7.934445599000e-01  4.306573322000e-01 -2.256335333000e-01 -5.456361920553e-04  9.594903612499e-04 -4.894542471471e-04
O -2.810891960000e-02 -1.362370285000e-01  6.750420650000e-02 -1.108589562565e-04 -4.749938520545e-05  2.576081504715e-05
H -8.696756610000e-01  4.804162973000e-01 -2.392818835000e-01  2.161816089192e-03 -2.784659610671e-04  1.202211593922e-04
3
step 1475
H  7.905994515000e-01  4.345633697000e-01 -2.276238311000e-01 -7.538853027763e-04  8.234971728756e-04 -4.190649501645e-04
O -2.860470590000e-02 -1.363988587000e-01  6.759373400000e-02 -1.152581281890e-04 -2.652406716981e-05  1.518525971449e-05
H -8.595888804000e-01  4.787609420000e-01 -2.385387211000e-01  2.439828960732e-03 -4.749320060334e-04  2.178897946507e-04
3
step 1476
H  7.868474868000e-01  4.378635625000e-01 -2.293006722000e-01 -9.588483053876e-04  6.832910225734e-04 -3.465534433075e-04
O -2.911751640000e-02 -1.364691344000e-01  6.763708910000e-02 -1.186064708572e-04 -5.774964783703e-06  4.718380594079e-06
H -8.483252910000e-01  4.762602789000e-01 -2.373751811000e-01  2.697878169783e-03 -6.636033496676e-04  3.117533866010e-04
3
step 1477
H  7.822087953000e-01  4.405426889000e-01 -2.306564388000e-01 -1.157887880767e-03  5.403555931899e-04 -2.726902009244e-04
O -2.964260320000e-02 -1.364493940000e-01  6.763502350000e-02 -1.208200875967e-04  1.448311310626e-05 -5.506535682212e-06
H -8.359803824000e-01  4.729539050000e-01 -2.358106405000e-01  2.931991409946e-03 -8.417609199958e-04  4.004604922627e-04
3
step 1478
H  7.767150820000e-01  4.425920873000e-01 -2.316869200000e-01 -1.348334081789e-03  3.962174758197e-04 -1.982679262770e-04
O -3.017478460000e-02 -1.363423961000e-01  6.758890270000e-02 -1.217836650611e-04  3.395443921397e-05 -1.534089410669e-05
H -8.226681230000e-01  4.688942269000e-01 -2.338708454000e-01  3.137666405162e-03 -1.006238561849e-03  4.824361773392e-04
3
step 1479
H  7.704098405000e-01  4.440098949000e-01 -2.323914349000e-01 -1.527454763337e-03  2.524690432349e-04 -1.241133905058e-04
O -3.070830350000e-02 -1.361522667000e-01  6.750077890000e-02 -1.213496550085e-04  5.230758194651e-05 -2.461835493747e-05
H -8.085234009000e-01  4.641485478000e-01 -2.315889548000e-01  3.309830478957e-03 -1.153372101888e-03  5.558562173306e-04
3
step 1480
H  7.633486842000e-01  4.448013846000e-01 -2.327730072000e-01 -1.692432686020e-03  1.107903359705e-04 -5.109870478681e-05
O -3.123668690000e-02 -1.358846647000e-01  6.737347330000e-02 -1.193396821779e-04  6.917227424939e-05 -3.315312413361e-05
H -7.937045742000e-01  4.588013386000e-01 -2.290066783000e-01  3.442840641293e-03 -1.278974148519e-03  6.186341203823e-04
3
step 1481
H  7.555997597000e-01  4.449793951000e-01 -2.328385876000e-01 -1.840352022496e-03 -2.703176677939e-05  1.984884281404e-05
O -3.175261700000e-02 -1.355469564000e-01  6.721066370000e-02 -1.155494398612e-04  8.413934047007e-05 -4.073969737756e-05
H -7.783959113000e-01  4.529565455000e-01 -2.261754330000e-01  3.530546458502e-03 -1.378352901683e-03  6.684302921982e-04
3
step 1482
H  7.472441961000e-01  4.445648360000e-01 -2.325993146000e-01 -1.968197955220e-03 -1.590894363962e-04  8.773959254134e-05
O -3.224783290000e-02 -1.351483811000e-01  6.701696970000e-02 -1.097583759136e-04  9.676534509436e-05 -4.715503588485e-05
H -7.628095916000e-01  4.467396962000e-01 -2.231574018000e-01  3.566440508698e-03 -1.446397667659e-03  7.026944369047e-04
3
step 1483
H  7.383765219000e-01  4.435872408000e-01 -2.320707991000e-01 -2.072873273854e-03 -2.833474085464e-04  1.515183589403e-04
O -3.271308670000e-02 -1.347001856000e-01  6.679802110000e-02 -1.017456684999e-04  1.065838054803e-04 -5.216408820708e-05
H -7.471868283000e-01  4.402994594000e-01 -2.200263191000e-01  3.543924662501e-03 -1.477757759993e-03  7.187543264322e-04
3
step 1484
H  7.291049691000e-01  4.420853294000e-01 -2.312734131000e-01 -2.151238623169e-03 -3.976493049143e-04  2.100679094097e-04
O -3.313818530000e-02 -1.342156913000e-01  6.656049410000e-02 -9.131387659738e-05  1.131250255526e-04 -5.552980078516e-05
H -7.317975395000e-01  4.338081853000e-01 -2.168677516000e-01  3.456722714379e-03 -1.467143483475e-03  7.139653508676e-04
3
step 1485
H  7.195515381000e-01  4.401075052000e-01 -2.302325441000e-01 -2.200178796686e-03 -4.997393547320e-04  2.622204511978e-04
O -3.351215300000e-02 -1.337102551000e-01  6.631209290000e-02 -7.832117032115e-05  1.159458989113e-04 -5.702819777372e-05
H -7.169378600000e-01  4.274608315000e-01 -2.137785760000e-01  3.299460382231e-03 -1.409773784132e-03  6.859335572393e-04
3
step 1486
H  7.098517213000e-01  4.377122277000e-01 -2.289787835000e-01 -2.216699459640e-03 -5.873042196934e-04  3.067794900621e-04
O -3.382355550000e-02 -1.332010760000e-01  6.606145370000e-02 -6.272191251862e-05  1.146705132810e-04 -5.646876783000e-05
H -7.029247369000e-01  4.214715861000e-01 -2.108653082000e-01  3.068411116457e-03 -1.301980027300e-03  6.328170951596e-04
3
step 1487
H  7.001537220000e-01  4.349681439000e-01 -2.275479889000e-01 -2.198059475702e-03 -6.580413171234e-04  3.425553745905e-04
O -3.406101780000e-02 -1.327068003000e-01  6.581794790000e-02 -4.461278045115e-05  1.090401712809e-04 -5.371950421022e-05
H -6.900869153000e-01  4.160675102000e-01 -2.082409423000e-01  2.762364005788e-03 -1.141938998677e-03  5.536926350736e-04
3
step 1488
H  6.906170193000e-01  4.319538627000e-01 -2.259811619000e-01 -2.141937095871e-03 -7.097557303619e-04  3.684155318089e-04
O -3.421395150000e-02 -1.322468911000e-01  6.559136700000e-02 -2.427780414189e-05  9.896794108313e-05 -4.873408867846e-05
H -6.787519385000e-01  4.114787462000e-01 -2.060200740000e-01  2.383505908162e-03 -9.304501849317e-04  4.489442348300e-04
3
step 1489
H  6.814101337000e-01  4.287572383000e-01 -2.243240711000e-01 -2.046626658997e-03 -7.404874707791e-04  3.833504042730e-04
O -3.427346710000e-02 -1.318407551000e-01  6.539148740000e-02 -2.221657179308e-06  8.458885545271e-05 -4.157698645540e-05
H -6.692294150000e-01  4.079253592000e-01 -2.043123368000e-01  1.938144838897e-03 -6.716081492013e-04  3.206001970854e-04
3
step 1490
H  6.727074703000e-01  4.254740309000e-01 -2.226265526000e-01 -1.911256177319e-03 -7.486666367815e-04  3.865537996146e-04
O -3.423339270000e-02 -1.315066739000e-01  6.522753650000e-02  2.082183659806e-05  6.629321626381e-05 -3.244037273832e-05
H -6.617916884000e-01  4.056016611000e-01 -2.032145770000e-01  1.437060170934e-03 -3.731753762062e-04  1.725209065951e-04
3
step 1491
H  6.646851799000e-01  4.222058325000e-01 -2.209414296000e-01 -1.736009625611e-03 -7.332891515884e-04  3.775138311617e-04
O -3.409126010000e-02 -1.312606388000e-01  6.510760930000e-02  4.391768694052e-05  4.473059872121e-05 -2.164654163333e-05
H -6.566540391000e-01  4.046597892000e-01 -2.028026469000e-01  8.952788235472e-04 -4.646582985946e-05  1.034259741548e-05
3
step 1492
H  6.575160579000e-01  4.190571898000e-01 -2.193230177000e-01 -1.522330585081e-03 -6.940986673278e-04  3.561069165767e-04
O -3.384907930000e-02 -1.311152469000e-01  6.503811270000e-02  6.599931281823e-05  2.077647827822e-05 -9.631665289692e-06
H -6.539573138000e-01  4.051950496000e-01 -2.031240714000e-01  3.311735903214e-04  2.943687077628e-04 -1.588776651980e-04
3
step 1493
H  6.513636227000e-01  4.161319381000e-01 -2.178252217000e-01 -1.273077192116e-03 -6.317525436666e-04  3.226834526515e-04
O -3.351371560000e-02 -1.310788287000e-01  6.502332480000e-02  8.597352981311e-05 -4.537043306339e-06  3.088529956235e-06
H -6.537560168000e-01  4.072357406000e-01 -2.041929480000e-01 -2.350473299205e-04  6.336041989111e-04 -3.272936141362e-04
3
step 1494
H  6.463756585000e-01  4.135288717000e-01 -2.164992907000e-01 -9.925966323372e-04 -5.479445068006e-04  2.781309412165e-04
O -3.309674510000e-02 -1.311549495000e-01  6.506513970000e-02  1.028426880112e-04 -3.011425383542e-05  1.596519609265e-05
H -6.560141577000e-01  4.107395711000e-01 -2.059881409000e-01 -7.832037999025e-04  9.555425098565e-04 -4.870686180189e-04
3
step 1495
H  6.426776427000e-01  4.113370045000e-01 -2.153913631000e-01 -6.866855372047e-04 -4.454518956092e-04  2.238980510367e-04
O -3.261376340000e-02 -1.313423514000e-01  6.516303250000e-02  1.158184540543e-04 -5.489342214084e-05  2.846516830793e-05
H -6.606096492000e-01  4.155974685000e-01 -2.084551710000e-01 -1.294988058067e-03  1.246107691893e-03 -6.311743587913e-04
3
step 1496
H  6.403666347000e-01  4.096308269000e-01 -2.145400114000e-01 -3.624230774698e-04 -3.280874555843e-04  1.619693080250e-04
O -3.208324510000e-02 -1.316353090000e-01  6.531423170000e-02  1.244030931759e-04 -7.792894404379e-05  4.011210882182e-05
H -6.673462940000e-01  4.216439667000e-01 -2.115113994000e-01 -1.755421903167e-03  1.494102228068e-03 -7.540197824467e-04
3
step 1497
H  6.395061635000e-01  4.084659882000e-01 -2.139740078000e-01 -2.787519017803e-05 -2.005421091495e-04  9.478337895781e-05
O -3.152514120000e-02 -1.320242893000e-01  6.551404420000e-02  1.284241038869e-04 -9.844555018663e-05  5.051373650459e-05
H -6.759709339000e-01  4.286720061000e-01 -2.150534210000e-01 -2.153702055781e-03  1.691913750821e-03 -8.518051389284e-04
3
step 1498
H  6.401227054000e-01  4.078759300000e-01 -2.137105843000e-01  3.083167042281e-04 -6.812133070944e-05  2.509648913209e-05
O -3.095943590000e-02 -1.324967828000e-01  6.575626560000e-02  1.280196409652e-04 -1.158615999962e-04  5.937358356346e-05
H -6.861928346000e-01  4.364495064000e-01 -2.189653461000e-01 -2.483381504741e-03  1.835624125020e-03 -9.225767704818e-04
3
step 1499
H  6.422041706000e-01  4.078698745000e-01 -2.137543943000e-01  6.374151708439e-04  6.359356202075e-05 -4.419296801434e-05
O -3.040487140000e-02 -1.330381669000e-01  6.603360850000e-02  1.235849064278e-04 -1.297862247907e-04  6.648993049280e-05
H -6.977024220000e-01  4.447351215000e-01 -2.231266736000e-01 -2.741999747468e-03  1.924626272313e-03 -9.660356586800e-04
3
step 1500
H  6.457005759000e-01  4.084324223000e-01 -2.140973066000e-01  9.510780179209e-04  1.891175034816e-04 -1.102370220635e-04
O -2.987797340000e-02 -1.336325116000e-01  6.633810330000e-02  1.156966087078e-04 -1.400004174332e-04  7.174681486026e-05
H -7.101874302000e-01  4.532914587000e-01 -2.274188972000e-01 -2.930374463323e-03  1.960947709141e-03 -9.831994836855e-04
3
step 1501
H  6.505268309000e-01  4.095247973000e-01 -2.147190526000e-01  1.241803697924e-03  3.034172011847e-04 -1.704221278149e-04
O -2.939243760000e-02 -1.342632777000e-01  6.666144800000e-02  1.050316760470e-04 -1.464306300685e-04  7.510152040074e-05
H -7.233454404000e-01  4.618949142000e-01 -2.317304213000e-01 -3.051755050484e-03  1.948470130397e-03 -9.760126652036e-04
3
step 1502
H  6.565673083000e-01  4.110875550000e-01 -2.155886306000e-01  1.503280319301e-03  4.022041020969e-04 -2.225207588880e-04
O -2.895886590000e-02 -1.349138916000e-01  6.699529910000e-02  9.229354865463e-05 -1.491210919725e-04  7.657124332497e-05
H -7.368926216000e-01  4.703420630000e-01 -2.359597547000e-01 -3.110998894534e-03  1.892192746976e-03 -9.469781341061e-04
3
step 1503
H  6.636816838000e-01  4.130443909000e-01 -2.166662795000e-01  1.730607108262e-03  4.821330449863e-04 -2.647943381515e-04
O -2.858479840000e-02 -1.355682013000e-01  6.733150500000e-02  7.815401236508e-05 -1.482080106643e-04  7.622046256670e-05
H -7.505690608000e-01  4.784530484000e-01 -2.400172044000e-01 -3.113867503148e-03  1.797624087530e-03 -8.988532630182e-04
3
step 1504
H  6.717114445000e-01  4.153065879000e-01 -2.179057836000e-01  1.920379946445e-03  5.408942569493e-04 -2.960409226966e-04
O -2.827495860000e-02 -1.362108251000e-01  6.766228640000e-02  6.321334840736e-05 -1.438966573392e-04  7.414939793471e-05
H -7.641413446000e-01  4.860726491000e-01 -2.438254084000e-01 -3.066479280794e-03  1.670330220822e-03 -8.344236826656e-04
3
step 1505
H  6.804864775000e-01  4.177776295000e-01 -2.192568640000e-01  2.070653294242e-03  5.772050478513e-04 -3.155910122034e-04
O -2.803163320000e-02 -1.368274072000e-01  6.798036890000e-02  4.797795364782e-05 -1.364414280398e-04  7.048379843420e-05
H -7.774031005000e-01  4.930697157000e-01 -2.473190500000e-01 -2.974916913923e-03  1.515630576606e-03 -7.563507283561e-04
3
step 1506
H  6.898312449000e-01  4.203575737000e-01 -2.206674464000e-01  2.180806040246e-03  5.907217037449e-04 -3.232620489194e-04
O -2.785511470000e-02 -1.374047920000e-01  6.827907360000e-02  3.285235500261e-05 -1.261287114403e-04  6.536614760722e-05
H -7.901741435000e-01  4.993355762000e-01 -2.504440559000e-01 -2.844970415146e-03  1.338416379795e-03 -6.670804627911e-04
3
step 1507
H  6.995701988000e-01  4.229468963000e-01 -2.220856543000e-01  2.251344819016e-03  5.818986626108e-04 -3.192855783140e-04
O -2.774415000000e-02 -1.379311299000e-01  6.855237270000e-02  1.814211204103e-05 -1.132625449573e-04  5.894836817049e-05
H -8.022987682000e-01  5.047818830000e-01 -2.531565144000e-01 -2.681989492714e-03  1.143063503785e-03 -5.688002970014e-04
3
step 1508
H  7.095322345000e-01  4.254496322000e-01 -2.234614395000e-01  2.283678257104e-03  5.518225037303e-04 -3.042213137347e-04
O -2.769635740000e-02 -1.383959259000e-01  6.879491690000e-02  4.063754402356e-06 -9.815305918898e-05  5.138602137975e-05
H -8.136436034000e-01  5.093382563000e-01 -2.554214936000e-01 -2.490817284313e-03  9.334128287519e-04 -4.634294734647e-04
3
step 1509
H  7.195541306000e-01  4.277757654000e-01 -2.247478235000e-01  2.279890483143e-03  5.020437383925e-04 -2.788700491645e-04
O -2.770858900000e-02 -1.387900442000e-01  6.900203970000e-02 -9.241450265052e-06 -8.110760554800e-05  4.283376342701e-05
H -8.240953250000e-01  5.129499593000e-01 -2.572118768000e-01 -2.275781617256e-03  7.127949617713e-04 -3.526316775750e-04
3
step 1510
H  7.294830204000e-01  4.298428990000e-01 -2.259017657000e-01  2.242533187170e-03  4.344223091173e-04 -2.441936982133e-04
O -2.777722720000e-02 -1.391056795000e-01  6.916974510000e-02 -2.169248504486e-05 -6.242436596299e-05  3.344210001004e-05
H -8.335584337000e-01  5.155757576000e-01 -2.585072906000e-01 -2.040724889300e-03  4.840819488708e-04 -2.378411290749e-04
3
step 1511
H  7.391780116000e-01  4.315772930000e-01 -2.268847052000e-01  2.174447999586e-03  3.509962914211e-04 -2.012473320602e-04
O -2.789841490000e-02 -1.393363052000e-01  6.929468370000e-02 -3.325392903408e-05 -4.238817952922e-05  2.335515567025e-05
H -8.419532291000e-01  5.171860467000e-01 -2.592931686000e-01 -1.789057188572e-03  2.497525036110e-04 -1.202953517623e-04
3
step 1512
H  7.485111040000e-01  4.329143851000e-01 -2.276628338000e-01  2.078624190455e-03  2.538775280848e-04 -1.511251544627e-04
O -2.806822450000e-02 -1.394766085000e-01  6.937412060000e-02 -4.392280192186e-05 -2.126833013059e-05  1.270944418594e-05
H -8.492140528000e-01  5.177612831000e-01 -2.595599670000e-01 -1.523821613571e-03  1.196203524948e-05 -1.070265279140e-06
3
step 1513
H  7.573675636000e-01  4.337989156000e-01 -2.282071659000e-01  1.958091606863e-03  1.451743696232e-04 -9.492047325676e-05
O -2.828277300000e-02 -1.395224193000e-01  6.940590100000e-02 -5.371724155091e-05  6.820249389870e-07  1.633484605824e-06
H -8.552878340000e-01  5.172907237000e-01 -2.593025343000e-01 -1.247765732066e-03 -2.273876065010e-04  1.188849059410e-04
3
step 1514
H  7.656459036000e-01  4.341847719000e-01 -2.284934606000e-01  1.815846151438e-03  2.693904345803e-05 -3.369829246715e-05
O -2.853829150000e-02 -1.394706402000e-01  6.938841490000e-02 -6.266710131100e-05  2.322499562215e-05 -9.751819355522e-06
H -8.601329575000e-01  5.157714675000e-01 -2.585196331000e-01 -9.634159883007e-04 -4.665806767983e-04  2.387138756240e-04
3
step 1515
H  7.732576066000e-01  4.340346528000e-01 -2.285020517000e-01  1.654803532674e-03 -9.886412387461e-05  3.152127595614e-05
O -2.883115810000e-02 -1.393191828000e-01  6.932056510000e-02 -7.080622510016e-05  4.613592041918e-05 -2.133221483059e-05
H -8.637184610000e-01  5.132077858000e-01 -2.572136052000e-01 -6.731538380549e-04 -7.040230293114e-04  3.576210379047e-04
3
step 1516
H  7.801267005000e-01  4.333196352000e-01 -2.282176253000e-01  1.477776537780e-03 -2.303736768443e-04  9.977086516566e-05
O -2.915790010000e-02 -1.390669156000e-01  6.920174170000e-02 -7.816615301785e-05  6.920044550054e-05 -3.299863706967e-05
H -8.660235686000e-01  5.096107274000e-01 -2.553901754000e-01 -3.792933692831e-04 -9.381804119011e-04  4.748406174525e-04
3
step 1517
H  7.861892819000e-01  4.320187069000e-01 -2.276289803000e-01  1.287471627262e-03 -3.658331655965e-04  1.701370418840e-04
O -2.951517170000e-02 -1.387136260000e-01  6.903180180000e-02 -8.477091953405e-05  9.221096387538e-05 -4.464540845548e-05
H -8.670375681000e-01  5.049979894000e-01 -2.530583865000e-01 -8.416043119745e-05 -1.167519294651e-03  5.896071131984e-04
3
step 1518
H  7.913930622000e-01  4.301183151000e-01 -2.267287960000e-01  1.086496961647e-03 -5.035844036853e-04  2.417568415641e-04
O -2.989971050000e-02 -1.382599992000e-01  6.881106020000e-02 -9.063232704540e-05  1.149624009028e-04 -5.616815411398e-05
H -8.667600368000e-01  4.993940404000e-01 -2.502306621000e-01  2.098236336250e-04 -1.390447126518e-03  7.011254358036e-04
3
step 1519
H  7.956969615000e-01  4.276119581000e-01 -2.255134230000e-01  8.773852246347e-04 -6.420535127218e-04  3.138105187369e-04
O -3.030827390000e-02 -1.377076170000e-01  6.854028750000e-02 -9.574609706884e-05  1.372478215333e-04 -6.746158953637e-05
H -8.652014508000e-01  4.928305133000e-01 -2.469230026000e-01  5.000574937729e-04 -1.605255992833e-03  8.085428323994e-04
3
step 1520
H  7.990708542000e-01  4.244998556000e-01 -2.239827139000e-01  6.626227588335e-04 -7.797324462754e-04  3.855119432801e-04
O -3.073756210000e-02 -1.370589757000e-01  6.822071970000e-02 -1.000879437278e-04  1.588535758757e-04 -7.841707964966e-05
H -8.623841511000e-01  4.853468223000e-01 -2.431552937000e-01  7.836687009685e-04 -1.810063932431e-03  9.109196594286e-04
3
step 1521
H  8.014954176000e-01  4.207887027000e-01 -2.221398985000e-01  4.446818646507e-04 -9.151592795971e-04  4.560983110319e-04
O -3.118412000000e-02 -1.363175267000e-01  6.785407810000e-02 -1.036096838066e-04  1.795544493358e-04 -8.892022074239e-05
H -8.583437501000e-01  4.769910691000e-01 -2.389517587000e-01  1.057419124621e-03 -2.002757543809e-03  1.007200790860e-03
3
step 1522
H  8.029621607000e-01  4.164915118000e-01 -2.199915047000e-01  2.260591832223e-04 -1.046896693787e-03  5.248189310572e-04
O -3.164422610000e-02 -1.354877369000e-01  6.744259970000e-02 -1.062356119244e-04  1.991088813201e-04 -9.884841781929e-05
H -8.531309248000e-01  4.678211616000e-01 -2.343415162000e-01  1.317609421896e-03 -2.180937928143e-03  1.096188662830e-03
3
step 1523
H  8.034736084000e-01  4.116275557000e-01 -2.175473314000e-01  9.314586727552e-06 -1.173509152645e-03  5.909232998327e-04
O -3.211376290000e-02 -1.345751716000e-01  6.698907880000e-02 -1.078586608712e-04  2.172540696635e-04 -1.080684299588e-04
H -8.468136596000e-01  4.579061937000e-01 -2.293592692000e-01  1.559980175497e-03 -2.341866933983e-03  1.176516373139e-03
3
step 1524
H  8.030436705000e-01  4.062224089000e-01 -2.148204738000e-01 -2.028897210303e-04 -1.293541501117e-03  6.536498610878e-04
O -3.258807190000e-02 -1.335865976000e-01  6.649691830000e-02 -1.083372795949e-04  2.337018018517e-04 -1.164342630686e-04
H -8.394799048000e-01  4.473280343000e-01 -2.240460979000e-01  1.779624084207e-03 -2.482425492330e-03  1.246626755080e-03
3
step 1525
H  8.016981681000e-01  4.003080779000e-01 -2.118273950000e-01 -4.077535825957e-04 -1.405499433286e-03  7.122157575566e-04
O -3.306179700000e-02 -1.325301021000e-01  6.597018990000e-02 -1.074934905140e-04  2.481355935560e-04 -1.237856751594e-04
H -8.312405874000e-01  4.361830715000e-01 -2.184503314000e-01  1.970920176633e-03 -2.599090441514e-03  1.304760657320e-03
3
step 1526
H  7.994755147000e-01  3.939232136000e-01 -2.085880410000e-01 -6.023068668031e-04 -1.507832369295e-03  7.658077849127e-04
O -3.352872220000e-02 -1.314152213000e-01  6.541369890000e-02 -1.051134288989e-04  2.602099984091e-04 -1.299477603812e-04
H -8.222328454000e-01  4.245840045000e-01 -2.126284439000e-01  2.127510503538e-03 -2.687943692112e-03  1.348961725198e-03
3
step 1527
H  7.964275222000e-01  3.871133911000e-01 -2.051259910000e-01 -7.833863759391e-04 -1.598920811889e-03  8.135756997822e-04
O -3.398161990000e-02 -1.302530655000e-01  6.483304760000e-02 -1.009518819042e-04  2.695535517468e-04 -1.347323843262e-04
H -8.126232429000e-01  4.126615078000e-01 -2.066458843000e-01  2.242347607967e-03 -2.744730402429e-03  1.377106043844e-03
3
step 1528
H  7.926202846000e-01  3.799314333000e-01 -2.014686313000e-01 -9.476253598020e-04 -1.677069978963e-03  8.546288051857e-04
O -3.441212840000e-02 -1.290564215000e-01  6.423468750000e-02 -9.474268765848e-05  2.757767287699e-04 -1.379421425400e-04
H -8.026105883000e-01  4.005655136000e-01 -2.005777125000e-01  2.307846589674e-03 -2.764985989108e-03  1.386965853758e-03
3
step 1529
H  7.881350753000e-01  3.724377458000e-01 -1.976473351000e-01 -1.091461199602e-03 -1.740512367916e-03  8.880372624230e-04
O -3.481069090000e-02 -1.278398082000e-01  6.362594830000e-02 -8.621713365661e-05  2.784864164214e-04 -1.393775964606e-04
H -7.924278196000e-01  3.884657650000e-01 -1.945088720000e-01  2.316181778606e-03 -2.744254201779e-03  1.376318012174e-03
3
step 1530
H  7.830691640000e-01  3.647006185000e-01 -1.936976258000e-01 -1.211168291941e-03 -1.787422574922e-03  9.128398252544e-04
O -3.516659430000e-02 -1.266194523000e-01  6.301502690000e-02 -7.513244341129e-05  2.773081742975e-04 -1.388484907226e-04
H -7.823422258000e-01  3.765511898000e-01 -1.885338769000e-01  2.259770774869e-03 -2.678417704440e-03  1.343108627817e-03
3
step 1531
H  7.775364262000e-01  3.567964308000e-01 -1.896592883000e-01 -1.302923748215e-03 -1.815948236226e-03  9.280600761951e-04
O -3.546815720000e-02 -1.254131495000e-01  6.241091780000e-02 -6.131192380013e-05  2.719169428194e-04 -1.361892855143e-04
H -7.726530965000e-01  3.650275610000e-01 -1.827556439000e-01  2.131979840764e-03 -2.564153770467e-03  1.285680812412e-03
3
step 1532
H  7.716675844000e-01  3.488096821000e-01 -1.855763901000e-01 -1.362913744168e-03 -1.824261022546e-03  9.327331761769e-04
O -3.570312050000e-02 -1.242399710000e-01  6.182326640000e-02 -4.469669082878e-05  2.620758375563e-04 -1.312787022968e-04
H -7.636857711000e-01  3.541128826000e-01 -1.772831862000e-01  1.928055887875e-03 -2.399506264609e-03  1.203060859095e-03
3
step 1533
H  7.656098882000e-01  3.408327512000e-01 -1.814971594000e-01 -1.387489940506e-03 -1.810632668990e-03  9.259458884764e-04
O -3.585928750000e-02 -1.231197854000e-01  6.126212870000e-02 -2.540502444121e-05  2.476804699209e-04 -1.240619572886e-04
H -7.557811324000e-01  3.440300454000e-01 -1.722279410000e-01  1.646228351011e-03 -2.184525093358e-03  1.095277441931e-03
3
step 1534
H  7.595259859000e-01  3.329652610000e-01 -1.774736552000e-01 -1.373378584610e-03 -1.773537110132e-03  9.068902745926e-04
O -3.592543390000e-02 -1.220725774000e-01  6.073762940000e-02 -3.790105185854e-06  2.288031535906e-04 -1.145727983961e-04
H -7.492800136000e-01  3.349966168000e-01 -1.676986706000e-01  1.288834831499e-03 -1.921873086750e-03  9.636635643684e-04
3
step 1535
H  7.535917749000e-01  3.253129447000e-01 -1.735611757000e-01 -1.317942915023e-03 -1.711778761365e-03  8.749312220561e-04
O -3.589245380000e-02 -1.211175828000e-01  6.025952910000e-02  1.951893337376e-05  2.057279094465e-04 -1.029509848281e-04
H -7.445028416000e-01  3.272121855000e-01 -1.637951476000e-01  8.632326426286e-04 -1.617253110730e-03  8.110686595552e-04
3
step 1536
H  7.479929772000e-01  3.179858873000e-01 -1.698173377000e-01 -1.219493694300e-03 -1.624644016510e-03  8.296861951707e-04
O -3.575462830000e-02 -1.202723008000e-01  5.983672950000e-02  4.361081091490e-05  1.789654722612e-04 -8.944999385057e-05
H -7.417260676000e-01  3.208444148000e-01 -1.606011993000e-01  3.822035788307e-04 -1.279489161775e-03  6.418990896523e-04
3
step 1537
H  7.429202721000e-01  3.110960666000e-01 -1.663007867000e-01 -1.077628182797e-03 -1.512066559081e-03  7.711123588247e-04
O -3.551082580000e-02 -1.195514980000e-01  5.947677320000e-02  6.733645304903e-05  1.492391342229e-04 -7.443031965820e-05
H -7.411582679000e-01  3.160156765000e-01 -1.581780394000e-01 -1.364126762680e-04 -9.201316539834e-04  4.619217104379e-04
3
step 1538
H  7.385629061000e-01  3.047541481000e-01 -1.630695146000e-01 -8.935600206868e-04 -1.374785935845e-03  6.995903380240e-04
O -3.516538280000e-02 -1.189663442000e-01  5.918540720000e-02  8.940837463237e-05  1.174385135483e-04 -5.833673250563e-05
H -7.429197828000e-01  3.127925589000e-01 -1.565590310000e-01 -6.709665184448e-04 -5.525633943795e-04  2.778177800261e-04
3
step 1539
H  7.351009383000e-01  2.990656378000e-01 -1.601788361000e-01 -6.703923972141e-04 -1.214477406039e-03  6.159929158859e-04
O -3.472843410000e-02 -1.185238211000e-01  5.896628210000e-02  1.085442055025e-04  8.454745107288e-05 -4.166250583521e-05
H -7.470297383000e-01  3.111803240000e-01 -1.557469213000e-01 -1.198001968845e-03 -1.907268896231e-04  9.654731615759e-05
3
step 1540
H  7.326964598000e-01  2.941265417000e-01 -1.576791053000e-01 -4.132724737691e-04 -1.033823208288e-03  5.217230371734e-04
O -3.421553800000e-02 -1.182264893000e-01  5.882082850000e-02  1.236266947741e-04  5.156007701844e-05 -2.490765535695e-05
H -7.534032166000e-01  3.111235527000e-01 -1.557141681000e-01 -1.694640099873e-03  1.522762995273e-04 -7.535060947893e-05
3
step 1541
H  7.314844879000e-01  2.900188938000e-01 -1.556133603000e-01 -1.293724552541e-04 -8.364995285939e-04  4.187075231302e-04
O -3.364660600000e-02 -1.180726310000e-01  5.874832110000e-02  1.338443842537e-04  1.940279267131e-05 -8.540007595271e-06
H -7.618591356000e-01  3.125128582000e-01 -1.564062968000e-01 -2.140830097804e-03  4.654099723010e-04 -2.323692189367e-04
3
step 1542
H  7.315643518000e-01  2.868065308000e-01 -1.540150942000e-01  1.723460693105e-04 -6.270592214530e-04  3.093359933929e-04
O -3.304429720000e-02 -1.180567001000e-01  5.874609690000e-02  1.387814245865e-04 -1.112406508832e-05  7.034031840786e-06
H -7.721371178000e-01  3.151962460000e-01 -1.577475765000e-01 -2.521010365542e-03  7.405138227608e-04 -3.704380703980e-04
3
step 1543
H  7.329926479000e-01  2.845316459000e-01 -1.529064338000e-01  4.815934624501e-04 -4.107061747233e-04  1.963427140354e-04
O -3.243216230000e-02 -1.181699751000e-01  5.880987420000e-02  1.384400098665e-04 -3.937877408336e-05  2.148592481962e-05
H -7.839199050000e-01  3.189929206000e-01 -1.596479133000e-01 -2.824926229412e-03  9.725990573846e-04 -4.870692305367e-04
3
step 1544
H  7.357786630000e-01  2.832125375000e-01 -1.522969452000e-01  7.873939752513e-04 -1.929858921085e-04  8.264401978397e-05
O -3.183284130000e-02 -1.184012945000e-01  5.893411520000e-02  1.331984475879e-04 -6.488639983939e-05  3.456941172993e-05
H -7.968573835000e-01  3.237072318000e-01 -1.620098049000e-01 -3.047607824523e-03  1.159673004686e-03 -5.812681440255e-04
3
step 1545
H  7.398829476000e-01  2.828428717000e-01 -1.521832354000e-01  1.078832767761e-03  2.057230870110e-05 -2.885003979978e-05
O -3.126657400000e-02 -1.187377807000e-01  5.911238300000e-02  1.237223389829e-04 -8.732967181108e-05  4.611642955192e-05
H -8.105888051000e-01  3.291409466000e-01 -1.647344543000e-01 -3.188707368712e-03  1.302238555553e-03 -6.532832919956e-04
3
step 1546
H  7.452192751000e-01  2.833925610000e-01 -1.525494051000e-01  1.345797581281e-03  2.248084765771e-04 -1.354218966105e-04
O -3.075017610000e-02 -1.191654959000e-01  5.933766920000e-02  1.108536721471e-04 -1.065304158627e-04  5.602851375192e-05
H -8.247610125000e-01  3.351028154000e-01 -1.677265335000e-01 -3.251480088217e-03  1.402642439656e-03 -7.042815667064e-04
3
step 1547
H  7.516597060000e-01  2.848101179000e-01 -1.533682806000e-01  1.579612013285e-03  4.152323572650e-04 -2.347051152704e-04
O -3.029651960000e-02 -1.196700033000e-01  5.960267540000e-02  9.550092993345e-05 -1.224275767611e-04  6.426647232810e-05
H -8.390417434000e-01  3.414151410000e-01 -1.708974568000e-01 -3.241672676008e-03  1.464419287378e-03 -7.360217355237e-04
3
step 1548
H  7.590420887000e-01  2.870261618000e-01 -1.546032544000e-01  1.773480168825e-03  5.882336515720e-04 -3.247957159670e-04
O -2.991446990000e-02 -1.202368309000e-01  5.990005000000e-02  7.854712542204e-05 -1.350551766745e-04  7.083997300658e-05
H -8.531281284000e-01  3.479176046000e-01 -1.741672868000e-01 -3.166507124634e-03  1.491726243810e-03 -7.505728838242e-04
3
step 1549
H  7.671790143000e-01  2.899576123000e-01 -1.562104916000e-01  1.922705388836e-03  7.411857594390e-04 -4.043075661818e-04
O -2.960917210000e-02 -1.208518395000e-01  6.022257930000e-02  6.078418937085e-05 -1.445215124196e-04  7.579758754052e-05
H -8.667511032000e-01  3.544688869000e-01 -1.774655438000e-01 -3.033858471261e-03  1.488909237542e-03 -7.500984704471e-04
3
step 1550
H  7.758672319000e-01  2.935121042000e-01 -1.581412549000e-01  2.024688842259e-03  8.724464884501e-04 -4.723733771741e-04
O -2.938256170000e-02 -1.215015047000e-01  6.056333690000e-02  4.287515409375e-05 -1.509901445530e-04  7.921742110086e-05
H -8.796767111000e-01  3.609466995000e-01 -1.807312223000e-01 -2.851653227410e-03  1.460203326855e-03 -7.367069327568e-04
3
step 1551
H  7.848965907000e-01  2.975921866000e-01 -1.603441200000e-01  2.078749157814e-03  9.812756701787e-04 -5.286018917248e-04
O -2.923398170000e-02 -1.221731187000e-01  6.091579240000e-02  2.534034895321e-05 -1.546627788670e-04  8.119844560545e-05
H -8.917052506000e-01  3.672467832000e-01 -1.839122931000e-01 -2.627469976167e-03  1.409547792463e-03 -7.123592421539e-04
3
step 1552
H  7.940578774000e-01  3.020990170000e-01 -1.627669259000e-01  2.085826632713e-03  1.067699706888e-03 -5.730068640598e-04
O -2.916081430000e-02 -1.228549223000e-01  6.127388540000e-02  8.561272021743e-06 -1.557645842455e-04  8.185286610087e-05
H -9.026690835000e-01  3.732813211000e-01 -1.869649107000e-01 -2.368305509199e-03  1.340489995061e-03 -6.788208077097e-04
3
step 1553
H  8.031491695000e-01  3.069353759000e-01 -1.653583685000e-01  2.048131313724e-03  1.132350653028e-03 -6.059224272502e-04
O -2.915906400000e-02 -1.235361780000e-01  6.163206760000e-02 -7.204092400215e-06 -1.545320657243e-04  8.129974417704e-05
H -9.124297357000e-01  3.789770962000e-01 -1.898524945000e-01 -2.080465670589e-03  1.256153039869e-03 -6.376453084362e-04
3
step 1554
H  8.119805933000e-01  3.120079516000e-01 -1.680692107000e-01  1.968787846501e-03  1.176303971139e-03 -6.279175601189e-04
O -2.922385560000e-02 -1.242071961000e-01  6.198532030000e-02 -2.180021505413e-05 -1.512035613216e-04  7.965996526442e-05
H -9.208747498000e-01  3.842736212000e-01 -1.925447949000e-01 -1.769544284385e-03  1.159246102584e-03 -5.901798585494e-04
3
step 1555
H  8.203775694000e-01  3.172289356000e-01 -1.708531275000e-01  1.851513144915e-03  1.200931344717e-03 -6.397183706078e-04
O -2.934983260000e-02 -1.248593248000e-01  6.232915320000e-02 -3.515133570690e-05 -1.460123672105e-04  7.705250867439e-05
H -9.279146020000e-01  3.891213865000e-01 -1.950170197000e-01 -1.440460454204e-03  1.052101271870e-03 -5.375834881386e-04
3
step 1556
H  8.281827498000e-01  3.225170196000e-01 -1.736672358000e-01  1.700346814624e-03  1.207777169013e-03 -6.421427574902e-04
O -2.953145670000e-02 -1.254849160000e-01  6.265958870000e-02 -4.723990617856e-05 -1.391821621197e-04  7.359198838576e-05
H -9.334798808000e-01  3.934803122000e-01 -1.972490618000e-01 -1.097531155736e-03  9.367246580412e-04 -4.808528917729e-04
3
step 1557
H  8.352569049000e-01  3.277979098000e-01 -1.764723679000e-01  1.519441818230e-03  1.198461814353e-03 -6.360492194179e-04
O -2.976321790000e-02 -1.260772752000e-01  6.297313940000e-02 -5.808760228818e-05 -1.309245435482e-04  6.938726802297e-05
H -9.375188392000e-01  3.973184439000e-01 -1.992248504000e-01 -7.445637726558e-04  8.148545319683e-04 -4.208516145200e-04
3
step 1558
H  8.414790282000e-01  3.330044773000e-01 -1.792331531000e-01  1.312914161566e-03  1.174611698530e-03 -6.222998158744e-04
O -3.003976760000e-02 -1.266306059000e-01  6.326678040000e-02 -6.773957665930e-05 -1.214383055431e-04  6.454094432980e-05
H -9.399953835000e-01  4.006109128000e-01 -2.009318353000e-01 -3.849555896388e-04  6.880204330603e-04 -3.583397042114e-04
3
step 1559
H  8.467459082000e-01  3.380766608000e-01 -1.819179674000e-01  1.084744735423e-03  1.137811853246e-03 -6.017350950813e-04
O -3.035599110000e-02 -1.271399533000e-01  6.353792200000e-02 -7.625185639323e-05 -1.109101197830e-04  5.914958943397e-05
H -9.408874952000e-01  4.033391490000e-01 -2.023605969000e-01 -2.179631139544e-05  5.576017972783e-04 -2.940029248877e-04
3
step 1560
H  8.509713745000e-01  3.429612015000e-01 -1.844987955000e-01  8.387247511757e-04  1.089578081965e-03 -5.751592610092e-04
O -3.070702970000e-02 -1.276011543000e-01  6.378438460000e-02 -8.368151992791e-05 -9.951635941821e-05  5.330457820331e-05
H -9.401861179000e-01  4.054903551000e-01 -2.035045859000e-01  3.420307118926e-04  4.248848070231e-04 -2.284810880359e-04
3
step 1561
H  8.540853915000e-01  3.476113026000e-01 -1.869510510000e-01  5.784359116600e-04  1.031345568919e-03 -5.433341213355e-04
O -3.108826840000e-02 -1.280107976000e-01  6.400437790000e-02 -9.007937882067e-05 -8.742579140692e-05  4.709338641800e-05
H -9.378944648000e-01  4.070572161000e-01 -2.043599812000e-01  7.037519307291e-04  2.911164572643e-04 -1.623950125180e-04
3
step 1562
H  8.560331313000e-01  3.519862643000e-01 -1.892533847000e-01  3.072568974631e-04  9.644691076504e-04 -5.069791331549e-04
O -3.149529320000e-02 -1.283661969000e-01  6.419648770000e-02 -9.548441937704e-05 -7.480299107390e-05  4.060127748022e-05
H -9.340277501000e-01  4.080378468000e-01 -2.049256665000e-01  1.060608432052e-03  1.575581188575e-04 -9.637322395066e-05
3
step 1563
H  8.567741244000e-01  3.560511451000e-01 -1.913875063000e-01  2.838655118178e-05  8.902310317550e-04 -4.667756083260e-04
O -3.192383010000e-02 -1.286653810000e-01  6.435967010000e-02 -9.991947845746e-05 -6.181211778026e-05  3.391320396220e-05
H -9.286133296000e-01  4.084359702000e-01 -2.052033207000e-01  1.409764518656e-03  2.553770769727e-05 -3.107798214384e-05
3
step 1564
H  8.562815354000e-01  3.597764669000e-01 -1.933380284000e-01 -2.551174516729e-04  8.098572683296e-04 -4.233751561614e-04
O -3.236966510000e-02 -1.289071002000e-01  6.449325420000e-02 -1.033879203392e-04 -4.862134425049e-05  2.711609312066e-05
H -9.216912320000e-01  4.082613213000e-01 -2.051976226000e-01  1.748215822369e-03 -1.034960068887e-04  3.276752584817e-05
3
step 1565
H  8.545416515000e-01  3.631380158000e-01 -1.950923628000e-01 -5.402903051840e-04  7.245398228665e-04 -3.774116183843e-04
O -3.282855350000e-02 -1.290908550000e-01  6.459695670000e-02 -1.058713786281e-04 -3.540762872664e-05  2.030130153930e-05
H -9.133151036000e-01  4.075303010000e-01 -2.049165798000e-01  2.072705059990e-03 -2.279199896667e-04  9.435239035532e-05
3
step 1566
H  8.515535819000e-01  3.661167447000e-01 -1.966406688000e-01 -8.242107653402e-04  6.354599772236e-04 -3.295133331993e-04
O -3.329612070000e-02 -1.292169441000e-01  6.467090610000e-02 -1.073278455685e-04 -2.236153283278e-05  1.356708805551e-05
H -9.035534770000e-01  4.062668470000e-01 -2.043719670000e-01  2.379642277976e-03 -3.458839886980e-04  1.527512522858e-04
3
step 1567
H  8.473291768000e-01  3.686987768000e-01 -1.979758565000e-01 -1.103947691853e-03  5.438146918885e-04 -2.803170540750e-04
O -3.376775430000e-02 -1.292865355000e-01  6.471567910000e-02 -1.076902641663e-04 -9.692304559162e-06  7.021251243965e-06
H -8.924914132000e-01  4.045035514000e-01 -2.035798895000e-01  2.665028904796e-03 -4.552565240616e-04  2.068969272341e-04
3
step 1568
H  8.418931950000e-01  3.708755393000e-01 -1.990936575000e-01 -1.376506512264e-03  4.508460708298e-04 -2.304835552371e-04
O -3.423849290000e-02 -1.293017592000e-01  6.473234740000e-02 -1.068662630695e-04  2.367107319105e-06  7.836800508332e-07
H -8.802324352000e-01  4.022830041000e-01 -2.025614606000e-01  2.924400704492e-03 -5.535766589282e-04  2.555556944982e-04
3
step 1569
H  8.352836917000e-01  3.726440248000e-01 -1.999927639000e-01 -1.638779342882e-03  3.578713977289e-04 -1.807134200019e-04
O -3.470291580000e-02 -1.292658215000e-01  6.472253680000e-02 -1.047392307596e-04  1.355566048324e-05 -5.011424686230e-06
H -8.669006697000e-01  3.996593322000e-01 -2.013435816000e-01  3.152795290377e-03 -6.380159320310e-04  2.973076096588e-04
3
step 1570
H  8.275526219000e-01  3.740071878000e-01 -2.006750382000e-01 -1.887499676169e-03  2.663137847282e-04 -1.317632313609e-04
O -3.515504130000e-02 -1.291831368000e-01  6.468849360000e-02 -1.011714558487e-04  2.358093250102e-05 -1.021388638354e-05
H -8.526430644000e-01  3.966998766000e-01 -1.999597916000e-01  3.344758405626e-03 -7.053593467570e-04  3.305365900172e-04
3
step 1571
H  8.187666255000e-01  3.749744742000e-01 -2.011457930000e-01 -2.119206274184e-03  1.777316418547e-04 -8.446104491347e-05
O -3.558824350000e-02 -1.290594703000e-01  6.463315750000e-02 -9.601036196300e-05  3.211798264059e-05 -1.465701790100e-05
H -8.376314747000e-01  3.934868983000e-01 -1.984511336000e-01  3.494407323448e-03 -7.520180191840e-04  3.534365077766e-04
3
step 1572
H  8.090079457000e-01  3.755624756000e-01 -2.014141370000e-01 -2.330220697408e-03  9.384487815792e-05 -3.972013852208e-05
O -3.599520540000e-02 -1.289020798000e-01  6.456023350000e-02 -8.909887940719e-05  3.881160081667e-05 -1.815873230213e-05
H -8.220643269000e-01  3.901191436000e-01 -1.968669517000e-01  3.595573454048e-03 -7.740897305000e-04  3.640413588335e-04
3
step 1573
H  7.983754116000e-01  3.757956886000e-01 -2.014933746000e-01 -2.516644406705e-03  1.655484510847e-05  1.450684588834e-06
O -3.636792680000e-02 -1.287198391000e-01  6.447425470000e-02 -8.029127006666e-05  4.328339268537e-05 -2.052506254632e-05
H -8.061674562000e-01  3.867130209000e-01 -1.952654932000e-01  3.642048997344e-03 -7.674867923954e-04  3.602891977586e-04
3
step 1574
H  7.869853818000e-01  3.757073432000e-01 -2.014014424000e-01 -2.674382262990e-03 -5.204596824912e-05  3.794230082339e-05
O -3.669781540000e-02 -1.285233171000e-01  6.438062350000e-02 -6.947530603970e-05  4.514511790654e-05 -2.155678033869e-05
H -7.901936118000e-01  3.834030470000e-01 -1.937141456000e-01  3.627959349264e-03 -7.281515619334e-04  3.401301694940e-04
3
step 1575
H  7.749725208000e-01  3.753402466000e-01 -2.011613505000e-01 -2.799203116211e-03 -1.096815186336e-04  6.854961326281e-05
O -3.697588890000e-02 -1.283247848000e-01  6.428561640000e-02 -5.660069229526e-05  4.401961631410e-05 -2.105999177510e-05
H -7.744200363000e-01  3.803411377000e-01 -1.922890940000e-01  3.548272789753e-03 -6.523769986654e-04  3.016874689942e-04
3
step 1576
H  7.624902130000e-01  3.747475460000e-01 -2.008015808000e-01 -2.886844161940e-03 -1.539223544627e-04  9.198782452829e-05
O -3.719311480000e-02 -1.281381117000e-01  6.419633250000e-02 -4.171272772980e-05  3.956995279633e-05 -1.886088348139e-05
H -7.591435103000e-01  3.776942492000e-01 -1.910741494000e-01  3.399440038284e-03 -5.372397970462e-04  2.434755164356e-04
3
step 1577
H  7.497104258000e-01  3.739933082000e-01 -2.003563867000e-01 -2.933168152773e-03 -1.822461911278e-04  1.069246671058e-04
O -3.734090720000e-02 -1.279785174000e-01  6.412056920000e-02 -2.498817403113e-05  3.153633749638e-05 -1.482455982350e-05
H -7.446723353000e-01  3.756398784000e-01 -1.901584969000e-01  3.180124754556e-03 -3.811307537754e-04  1.646680069230e-04
3
step 1578
H  7.368227477000e-01  3.731527524000e-01 -1.998659082000e-01 -2.934382556306e-03 -1.921384233493e-04  1.120336832592e-04
O -3.741178040000e-02 -1.278621447000e-01  6.406660630000e-02 -6.767440292916e-06  1.977829812493e-05 -8.876494746147e-06
H -7.313149857000e-01  3.743590635000e-01 -1.896331784000e-01  2.891938098269e-03 -1.843302100558e-04  6.538983467901e-05
3
step 1579
H  7.240323335000e-01  3.723119500000e-01 -1.993760062000e-01 -2.887319274685e-03 -1.812374016165e-04  1.060710457417e-04
O -3.740012750000e-02 -1.278054422000e-01  6.404289310000e-02  1.242547358617e-05  4.316760852318e-06 -1.024038463811e-06
H -7.193656644000e-01  3.740268481000e-01 -1.895862859000e-01  2.540036487147e-03  5.046624351426e-05 -5.301533720721e-05
3
step 1580
H  7.115564951000e-01  3.715667865000e-01 -1.989377054000e-01 -2.789766944686e-03 -1.475270553461e-04  8.797735918092e-05
O -3.730304800000e-02 -1.278243697000e-01  6.405764520000e-02  3.188557781791e-05 -1.463187267099e-05  8.626102924720e-06
H -7.090877232000e-01  3.748006818000e-01 -1.900971032000e-01  2.133410888212e-03  3.178013743702e-04 -1.878076705775e-04
3
step 1581
H  6.996197384000e-01  3.710209754000e-01 -1.986061370000e-01 -2.640834384800e-03 -8.957193518870e-05  5.700163095372e-05
O -3.712110430000e-02 -1.279334823000e-01  6.411837810000e-02  5.076046693187e-05 -3.663876679711e-05  1.985885336735e-05
H -7.006966870000e-01  3.768078533000e-01 -1.912297467000e-01  1.684713365526e-03  6.094248547318e-04 -3.348327263870e-04
3
step 1582
H  6.884471739000e-01  3.707829635000e-01 -1.984388975000e-01 -2.441308177683e-03 -6.778447330522e-06  1.283878601987e-05
O -3.685885510000e-02 -1.281449869000e-01  6.423142530000e-02  6.811760074985e-05 -6.106990610366e-05  3.235398943405e-05
H -6.943451923000e-01  3.801336155000e-01 -1.930271457000e-01  1.209543295736e-03  9.146717016568e-04 -4.887105224599e-04
3
step 1583
H  6.782564241000e-01  3.709616588000e-01 -1.984937878000e-01 -2.193952671349e-03  1.003472764818e-04 -4.423475178957e-05
O -3.652502320000e-02 -1.284678907000e-01  6.440150030000e-02  8.303915780674e-05 -8.711996214692e-05  4.570283828545e-05
H -6.901122578000e-01  3.848119304000e-01 -1.955063376000e-01  7.252403741856e-04  1.221257137829e-03 -6.432358047774e-04
3
step 1584
H  6.692484095000e-01  3.716610789000e-01 -1.988259854000e-01 -1.903690525675e-03  2.299873654783e-04 -1.132499243465e-04
O -3.613219900000e-02 -1.289073533000e-01  6.463136010000e-02  9.472879173061e-05 -1.138684668360e-04  5.943641235578e-05
H -6.879987842000e-01  3.908205498000e-01 -1.986559511000e-01  2.493700730486e-04  1.516379845952e-03 -7.919354935950e-04
3
step 1585
H  6.615976756000e-01  3.729742242000e-01 -1.994848113000e-01 -1.577596852337e-03  3.788970565059e-04 -1.924850490423e-04
O -3.569607380000e-02 -1.294643269000e-01  6.492161430000e-02  1.026083176461e-04 -1.403484692872e-04  7.306009432017e-05
H -6.879300788000e-01  3.980814142000e-01 -2.024363791000e-01 -2.018153098280e-04  1.787926041759e-03 -9.286784906959e-04
3
step 1586
H  6.554432301000e-01  3.749767180000e-01 -2.005103769000e-01 -1.224674023075e-03  5.424297569794e-04 -2.794798564178e-04
O -3.523429770000e-02 -1.301355097000e-01  6.527069180000e-02  1.063840560881e-04 -1.656156772069e-04  8.608879744904e-05
H -6.897648226000e-01  4.064662705000e-01 -2.067825983000e-01 -6.146535449930e-04  2.025543930924e-03 -1.048221057992e-03
3
step 1587
H  6.508808410000e-01  3.777208996000e-01 -2.019304738000e-01 -8.553918104728e-04  7.147300520065e-04 -3.711379223497e-04
O -3.476513190000e-02 -1.309135908000e-01  6.567495720000e-02  1.060685408179e-04 -1.888073134600e-04  9.807716182502e-05
H -6.933087676000e-01  4.158064732000e-01 -2.116091152000e-01 -9.788770273312e-04  2.221388114834e-03 -1.146585705538e-03
3
step 1588
H  6.479578973000e-01  3.812311528000e-01 -2.037581176000e-01 -4.810309516329e-04  8.890930603957e-04 -4.639165943022e-04
O -3.430611680000e-02 -1.317877182000e-01  6.612894200000e-02  1.019561598100e-04 -2.091852300148e-04  1.086419112453e-04
H -6.983307455000e-01  4.259051160000e-01 -2.168161004000e-01 -1.287883806080e-03  2.370448233851e-03 -1.221229441965e-03
3
step 1589
H  6.466714521000e-01  3.855011441000e-01 -2.059900990000e-01 -1.129213222205e-04  1.058446746772e-03 -5.540813919400e-04
O -3.387293750000e-02 -1.327441216000e-01  6.662565700000e-02  9.456269425324e-05 -2.261621822166e-04  1.174757628628e-04
H -7.045787362000e-01  4.365497088000e-01 -2.222958072000e-01 -1.538539883259e-03  2.470484177554e-03 -1.271012394365e-03
3
step 1590
H  6.469697494000e-01  3.904933716000e-01 -2.086067537000e-01  2.383232492067e-04  1.215886992507e-03 -6.379878750555e-04
O -3.347862090000e-02 -1.337668103000e-01  6.715694480000e-02  8.454400908812e-05 -2.393126849817e-04  1.243536529272e-04
H -7.117941465000e-01  4.475237426000e-01 -2.279384313000e-01 -1.730654098439e-03  2.521660329284e-03 -1.296013531834e-03
3
step 1591
H  6.487569629000e-01  3.961410854000e-01 -2.115729809000e-01  5.634591868553e-04  1.355183041812e-03 -7.123476865929e-04
O -3.313311270000e-02 -1.348382907000e-01  6.771384660000e-02  7.261222947897e-05 -2.483720848785e-04  1.291329561945e-04
H -7.197232836000e-01  4.586161659000e-01 -2.336369171000e-01 -1.866298878419e-03  2.526020153800e-03 -1.297265166398e-03
3
step 1592
H  6.519004483000e-01  4.023522600000e-01 -2.148403410000e-01  8.550753581416e-04  1.471178435824e-03 -7.744393776431e-04
O -3.284320830000e-02 -1.359402560000e-01  6.828695700000e-02  5.946301574402e-05 -2.532263118807e-04  1.317490108899e-04
H -7.281256895000e-01  4.696283515000e-01 -2.392904939000e-01 -1.949114522055e-03  2.486919540538e-03 -1.276466335788e-03
3
step 1593
H  6.562395265000e-01  4.090150223000e-01 -2.183499180000e-01  1.107824290047e-03  1.560040325667e-03 -8.222392714309e-04
O -3.261276580000e-02 -1.370542146000e-01  6.886675120000e-02  4.572221944801e-05 -2.538949117078e-04  1.322068771424e-04
H -7.367795269000e-01  4.803786145000e-01 -2.448069741000e-01 -1.983691055448e-03  2.408507041060e-03 -1.235719704160e-03
3
step 1594
H  6.615947584000e-01  4.160038064000e-01 -2.220355637000e-01  1.318430470108e-03  1.619344758705e-03 -8.544660217043e-04
O -3.244310390000e-02 -1.381620307000e-01  6.944386830000e-02  3.191419245886e-05 -2.505094020035e-04  1.305704945042e-04
H -7.454845039000e-01  4.907046307000e-01 -2.501039867000e-01 -1.975072238743e-03  2.295297885720e-03 -1.177315548978e-03
3
step 1595
H  6.677768017000e-01  4.231855278000e-01 -2.258271494000e-01  1.485519321366e-03  1.648016976338e-03 -8.705489263623e-04
O -3.233349220000e-02 -1.392463636000e-01  7.000934290000e-02  1.844930803867e-05 -2.432892972890e-04  1.269502670367e-04
H -7.540629200000e-01  5.004642270000e-01 -2.551093858000e-01 -1.928388709061e-03  2.151855003562e-03 -1.103569544344e-03
3
step 1596
H  6.745941890000e-01  4.304252157000e-01 -2.296535328000e-01  1.609328267634e-03  1.646165892472e-03 -8.705407030813e-04
O -3.228165840000e-02 -1.402909982000e-01  7.055478030000e-02  5.626186934862e-06 -2.325178596546e-04  1.214903924175e-04
H -7.623593804000e-01  5.095350083000e-01 -2.597610645000e-01 -1.848607945216e-03  1.982570732831e-03 -1.016711296457e-03
3
step 1597
H  6.818596553000e-01  4.375907388000e-01 -2.334450466000e-01  1.691362695003e-03  1.614858600092e-03 -8.549988482598e-04
O -3.228425880000e-02 -1.412810727000e-01  7.107247680000e-02 -6.356500223214e-06 -2.185195773004e-04  1.143570229766e-04
H -7.702396538000e-01  5.178132377000e-01 -2.640063875000e-01 -1.740381083395e-03  1.791533328643e-03 -9.188160067305e-04
3
step 1598
H  6.893949065000e-01  4.445564639000e-01 -2.371354268000e-01  1.734049024463e-03  1.555876584578e-03 -8.248574836519e-04
O -3.233728260000e-02 -1.422032117000e-01  7.155549170000e-02 -1.738323896407e-05 -2.016406188163e-04  1.057280357326e-04
H -7.775890464000e-01  5.252122955000e-01 -2.678014075000e-01 -1.607964620006e-03  1.582459343759e-03 -8.117700656568e-04
3
step 1599
H  6.970339109000e-01  4.512058492000e-01 -2.406631806000e-01  1.740419955425e-03  1.471484415928e-03 -7.813056847202e-04
O -3.243637540000e-02 -1.430455824000e-01  7.199767800000e-02 -2.740332286404e-05 -1.822331408403e-04  9.578485025191e-05
H -7.843105744000e-01  5.316609676000e-01 -2.711099966000e-01 -1.455196793170e-03  1.358675134197e-03 -6.972618421861e-04
3
step 1600
H  7.046249127000e-01  4.574330783000e-01 -2.439724493000e-01  1.713850950470e-03  1.364229702251e-03 -7.256822052686e-04
O -3.257708270000e-02 -1.437978911000e-01  7.239368250000e-02 -3.641333736454e-05 -1.606436593608e-04  8.470632632458e-05
H -7.903231316000e-01  5.371017424000e-01 -2.739029821000e-01 -1.285511007830e-03  1.123132103618e-03 -5.767895230396e-04
3
step 1601
H  7.120314179000e-01  4.631439028000e-01 -2.470134551000e-01  1.657854694469e-03  1.236782861489e-03 -6.593910231127e-04
O -3.275502000000e-02 -1.444513373000e-01  7.273892320000e-02 -4.444173712051e-05 -1.372051784046e-04  7.266461804126e-05
H -7.955597792000e-01  5.414892327000e-01 -2.761573462000e-01 -1.101972879376e-03  8.784433081218e-04 -4.516797990762e-04
3
step 1602
H  7.191324096000e-01  4.682558746000e-01 -2.497426253000e-01  1.575931905339e-03  1.091818064399e-03 -5.838385798524e-04
O -3.296598190000e-02 -1.449985414000e-01  7.302955350000e-02 -5.153616139520e-05 -1.122326921447e-04  5.982273286379e-05
H -7.999662374000e-01  5.447887934000e-01 -2.778555258000e-01 -9.073312143250e-04  6.269322794092e-04 -3.231126265555e-04
3
step 1603
H  7.258220277000e-01  4.726981462000e-01 -2.521224893000e-01  1.471472042153e-03  9.319318793806e-04 -5.003908954792e-04
O -3.320600080000e-02 -1.454334593000e-01  7.326241790000e-02 -5.775345093308e-05 -8.602147076428e-05  4.633356713805e-05
H -8.034996215000e-01  5.469753698000e-01 -2.789848289000e-01 -7.040761446673e-04  3.706876577183e-04 -1.921489915681e-04
3
step 1604
H  7.320089157000e-01  4.764109915000e-01 -2.541214284000e-01  1.347695280500e-03  7.595941156297e-04 -4.103477283496e-04
O -3.347136870000e-02 -1.457512951000e-01  7.343500760000e-02 -6.315211947516e-05 -5.884750841767e-05  3.234009350617e-05
H -8.061274423000e-01  5.480325940000e-01 -2.795369765000e-01 -4.945004893605e-04  1.116199091516e-04 -5.975966180694e-05
3
step 1605
H  7.376153925000e-01  4.793451758000e-01 -2.557133459000e-01  1.207626827872e-03  5.771243691911e-04 -3.149301419862e-04
O -3.375863020000e-02 -1.459484200000e-01  7.354541840000e-02 -6.778679995893e-05 -3.096963961670e-05  1.797642595626e-05
H -8.078268791000e-01  5.479521294000e-01 -2.795077716000e-01 -2.807623957083e-04 -1.484817832986e-04  7.314597024024e-05
3
step 1606
H  7.425765743000e-01  4.814612713000e-01 -2.568773081000e-01  1.054095492935e-03  3.866880735887e-04 -2.152784344020e-04
O -3.406455510000e-02 -1.460223031000e-01  7.359231510000e-02 -7.170421287086e-05 -2.632876081773e-06  3.369501961045e-06
H -8.085843280000e-01  5.467332648000e-01 -2.788968933000e-01 -6.494861154281e-05 -4.078932320998e-04  2.056913183601e-04
3
step 1607
H  7.468395345000e-01  4.827289923000e-01 -2.575971969000e-01  8.897502235084e-04  1.903068897741e-04 -1.124576461903e-04
O -3.438609690000e-02 -1.459714597000e-01  7.357490410000e-02 -7.494020879064e-05  2.592747476108e-05 -1.135877828060e-05
H -8.083952291000e-01  5.443827516000e-01 -2.777078153000e-01  1.508619043370e-04 -6.648999494430e-04  3.370045410672e-04
3
step 1608
H  7.503625695000e-01  4.831266022000e-01 -2.578613986000e-01  7.170859328786e-04 -1.012276749332e-05 -7.467260247435e-06
O -3.472033930000e-02 -1.457954179000e-01  7.349291710000e-02 -7.751728175152e-05  5.448109247835e-05 -2.608917033761e-05
H -8.072641709000e-01  5.409148815000e-01 -2.759478458000e-01  3.645319536529e-04 -9.177413715477e-04  4.661902423643e-04
3
step 1609
H  7.531145850000e-01  4.826404103000e-01 -2.576625411000e-01  5.384807216895e-04 -2.128029114193e-04  9.874471031546e-05
O -3.506443240000e-02 -1.454947084000e-01  7.334660390000e-02 -7.944280482314e-05  8.279757435802e-05 -4.070247548918e-05
H -8.052052956000e-01  5.363518125000e-01 -2.736282940000e-01  5.738005363799e-04 -1.164556838243e-03  5.923020364266e-04
3
step 1610
H  7.550746878000e-01  4.812644139000e-01 -2.569973068000e-01  3.562372137557e-04 -4.160037092508e-04  2.052657875661e-04
O -3.541552460000e-02 -1.450708758000e-01  7.313673920000e-02 -8.070734797285e-05  1.106411193029e-04 -5.507685295981e-05
H -8.022429772000e-01  5.307241183000e-01 -2.707647498000e-01  7.762148932591e-04 -1.403331092587e-03  7.143149340163e-04
3
step 1611
H  7.562319332000e-01  4.790000596000e-01 -2.558663085000e-01  1.726245043943e-04 -6.180329660868e-04  3.112029615842e-04
O -3.577068350000e-02 -1.445265140000e-01  7.286463930000e-02 -8.128296850096e-05  1.377652894317e-04 -6.908510015712e-05
H -7.984128215000e-01  5.240715918000e-01 -2.673774918000e-01  9.690605736269e-04 -1.631840918682e-03  8.310982682784e-04
3
step 1612
H  7.565852843000e-01  4.758561526000e-01 -2.542740428000e-01 -1.007552133855e-05 -8.172032226119e-04  4.156653799753e-04
O -3.612681270000e-02 -1.438653241000e-01  7.253219180000e-02 -8.112175745349e-05  1.639078082476e-04 -8.259198776193e-05
H -7.937629558000e-01  5.164442618000e-01 -2.634920041000e-01  1.149292723708e-03 -1.847605258028e-03  9.413903940954e-04
3
step 1613
H  7.561437647000e-01  4.718489062000e-01 -2.522289184000e-01 -1.895233559962e-04 -1.011799648190e-03  5.177474122083e-04
O -3.648056090000e-02 -1.430921953000e-01  7.214189630000e-02 -8.015441803223e-05  1.887856330699e-04 -9.545170909419e-05
H -7.883556309000e-01  5.079036323000e-01 -2.591396057000e-01  1.313469025052e-03 -2.047839503809e-03  1.043775471832e-03
3
step 1614
H  7.549268099000e-01  4.670021316000e-01 -2.497433569000e-01 -3.632773067808e-04 -1.200049314408e-03  6.165123904659e-04
O -3.682822520000e-02 -1.422133054000e-01  7.169691630000e-02 -7.828944280951e-05  2.120908822466e-04 -1.075056768770e-04
H -7.822690970000e-01  4.985240994000e-01 -2.543581702000e-01  1.457693064052e-03 -2.229422388362e-03  1.136666554527e-03
3
step 1615
H  7.529648103000e-01  4.613475566000e-01 -2.468339633000e-01 -5.287516249187e-04 -1.380092982683e-03  7.109776715222e-04
O -3.716565350000e-02 -1.412362378000e-01  7.120113940000e-02 -7.541332399552e-05  2.334880194007e-04 -1.185810056552e-04
H -7.755997013000e-01  4.883944808000e-01 -2.491929037000e-01  1.577576689528e-03 -2.388882466637e-03  1.218298580508e-03
3
step 1616
H  7.502998287000e-01  4.549252621000e-01 -2.435217583000e-01 -6.831799557131e-04 -1.549961421767e-03  8.001020069893e-04
O -3.748814950000e-02 -1.401701066000e-01  7.065924180000e-02 -7.139250069665e-05  2.526133140492e-04 -1.284901186864e-04
H -7.684640941000e-01  4.776195502000e-01 -2.436971256000e-01  1.668235409694e-03 -2.522415380981e-03  1.286737058345e-03
3
step 1617
H  7.469864630000e-01  4.477842084000e-01 -2.398324586000e-01 -8.235852017503e-04 -1.707557023061e-03  8.827756698958e-04
O -3.779039250000e-02 -1.390256780000e-01  7.007675250000e-02 -6.607826362950e-05  2.690774379470e-04 -1.370320506848e-04
H -7.610013652000e-01  4.663214164000e-01 -2.379329700000e-01  1.724335016659e-03 -2.625946187113e-03  1.339909753223e-03
3
step 1618
H  7.430928281000e-01  4.399828318000e-01 -2.357967958000e-01 -9.467639768308e-04 -1.850646272139e-03  9.578163407597e-04
O -3.806638490000e-02 -1.378154731000e-01  6.946010650000e-02 -5.931548121504e-05  2.824727375941e-04 -1.439962006357e-04
H -7.533748434000e-01  4.546405121000e-01 -2.319718901000e-01  1.740212549559e-03 -2.695251757136e-03  1.375669209473e-03
3
step 1619
H  7.387015539000e-01  4.315896377000e-01 -2.314508329000e-01 -1.049289805689e-03 -1.976865645366e-03  1.023972074187e-03
O -3.830944830000e-02 -1.365538255000e-01  6.881667560000e-02 -5.095646808034e-05  2.923863987991e-04 -1.491691929096e-04
H -7.457731741000e-01  4.427359015000e-01 -2.258948120000e-01  1.710096572446e-03 -2.726160012405e-03  1.391894542821e-03
3
step 1620
H  7.339107395000e-01  4.226837450000e-01 -2.268362568000e-01 -1.127540317046e-03 -2.083744273069e-03  1.079933229257e-03
O -3.851229290000e-02 -1.352568684000e-01  6.815476200000e-02 -4.088110672780e-05  2.984205957741e-04 -1.523452763535e-04
H -7.384101901000e-01  4.307845264000e-01 -2.197917480000e-01  1.628451889285e-03 -2.714840800951e-03  1.386639623996e-03
3
step 1621
H  7.288347135000e-01  4.133552811000e-01 -2.220005909000e-01 -1.177760940893e-03 -2.168751359382e-03  1.124357486763e-03
O -3.866718920000e-02 -1.339424169000e-01  6.748353790000e-02 -2.902361548044e-05  3.002203378433e-04 -1.533405447614e-04
H -7.315229742000e-01  4.189789675000e-01 -2.137606544000e-01  1.490468516065e-03 -2.658194247523e-03  1.358330126648e-03
3
step 1622
H  7.236044303000e-01  4.037055114000e-01 -2.169972685000e-01 -1.196172588224e-03 -2.229372568718e-03  1.155910156546e-03
O -3.876627180000e-02 -1.326297108000e-01  6.681291490000e-02 -1.540555588160e-05  2.975083372512e-04 -1.520106724666e-04
H -7.253674503000e-01  4.075232930000e-01 -2.079053202000e-01  1.292697090376e-03 -2.554326264015e-03  1.306004539419e-03
3
step 1623
H  7.183672882000e-01  3.938465656000e-01 -2.118854927000e-01 -1.179132793517e-03 -2.263220480103e-03  1.173322375833e-03
O -3.880199960000e-02 -1.313389914000e-01  6.615332820000e-02 -1.725380570956e-07  2.901247039776e-04 -1.482711548576e-04
H -7.202108857000e-01  3.966266585000e-01 -2.023321156000e-01  1.033798085913e-03 -2.403072265960e-03  1.229579902704e-03
3
step 1624
H  7.132861162000e-01  3.839006007000e-01 -2.067298001000e-01 -1.123357318212e-03 -2.268182053148e-03  1.175469008715e-03
O -3.876778160000e-02 -1.300908977000e-01  6.551542880000e-02  1.637095718660e-05  2.780669970931e-04 -1.421177774459e-04
H -7.163209262000e-01  3.864945722000e-01 -1.971455554000e-01  7.153194816129e-04 -2.206492297240e-03  1.130103347806e-03
3
step 1625
H  7.085370522000e-01  3.739982373000e-01 -2.015992396000e-01 -1.026204208165e-03 -2.242602068004e-03  1.161465812505e-03
O -3.865874120000e-02 -1.289056924000e-01  6.490968890000e-02  3.373761702883e-05  2.615237943953e-04 -1.336439537782e-04
H -7.139512930000e-01  3.773181628000e-01 -1.924428467000e-01  3.423604659179e-04 -1.969225906485e-03  1.009932341743e-03
3
step 1626
H  7.043060443000e-01  3.642761169000e-01 -1.965660857000e-01 -8.860127902887e-04 -2.185494338899e-03  1.130781839339e-03
O -3.847255160000e-02 -1.278023644000e-01  6.434594200000e-02  5.125519396142e-05  2.408935981841e-04 -1.230506171431e-04
H -7.133250101000e-01  3.692623390000e-01 -1.883078747000e-01 -7.605906410705e-05 -1.698582365469e-03  8.727798673013e-04
3
step 1627
H  7.007837625000e-01  3.548734898000e-01 -1.917040334000e-01 -7.024785517805e-04 -2.096765827109e-03  1.083359092005e-03
O -3.821021910000e-02 -1.267976892000e-01  6.383290180000e-02  6.809626318692e-05  2.167817132495e-04 -1.106449818224e-04
H -7.146168680000e-01  3.624542676000e-01 -1.848053551000e-01 -5.270991019775e-04 -1.404266485088e-03  7.235740421661e-04
3
step 1628
H  6.981588196000e-01  3.459278118000e-01 -1.870858648000e-01 -4.770221135718e-04 -1.977423420597e-03  1.019723261679e-03
O -3.787665720000e-02 -1.259053585000e-01  6.337771380000e-02  8.334371174968e-05  1.899713442551e-04 -9.682608035544e-05
H -7.179375305000e-01  3.569739329000e-01 -1.819760483000e-01 -9.947737219847e-04 -1.097711085147e-03  5.681179932296e-04
3
step 1629
H  6.966094541000e-01  3.375695220000e-01 -1.827806747000e-01 -2.130941910943e-04 -1.829725385915e-03  9.410652019569e-04
O -3.748089780000e-02 -1.251352946000e-01  6.298559950000e-02  9.608656558589e-05  1.613710563327e-04 -8.205833842124e-05
H -7.233218991000e-01  3.528484558000e-01 -1.798338880000e-01 -1.461166886035e-03 -7.910917273692e-04  4.125888809672e-04
3
step 1630
H  6.962940824000e-01  3.299163149000e-01 -1.788508243000e-01  8.365160711475e-05 -1.657238428352e-03  8.492723409535e-04
O -3.703582630000e-02 -1.244932383000e-01  6.265964050000e-02  1.055306358493e-04  1.319467764556e-04 -6.683708185411e-05
H -7.307238586000e-01  3.500512751000e-01 -1.783655800000e-01 -1.908014184210e-03 -4.961895668199e-04  2.629602950814e-04
3
step 1631
H  6.973414696000e-01  3.230674179000e-01 -1.753488920000e-01  4.053867906776e-04 -1.464766690146e-03  7.468921267919e-04
O -3.655742400000e-02 -1.239806593000e-01  6.240072390000e-02  1.111011339390e-04  1.026502431233e-04 -5.165220153502e-05
H -7.400184830000e-01  3.485064175000e-01 -1.775327843000e-01 -2.318359197368e-03 -2.233258404962e-04  1.244616891954e-04
3
step 1632
H  6.998415269000e-01  3.170984857000e-01 -1.723149468000e-01  7.423793739331e-04 -1.258136336175e-03  6.370187072227e-04
O -3.606360630000e-02 -1.235949702000e-01  6.220764420000e-02  1.125142812384e-04  7.435598101510e-05 -3.695592763777e-05
H -7.510112753000e-01  3.480970031000e-01 -1.772764450000e-01 -2.677960450705e-03  1.942616434211e-05  1.179288889583e-06
3
step 1633
H  7.038378571000e-01  3.120577624000e-01 -1.697744909000e-01  1.083521482377e-03 -1.043839621651e-03  5.231046580864e-04
O -3.557283800000e-02 -1.233299876000e-01  6.207733130000e-02  1.098022486491e-04  4.781389027832e-05 -2.313837919540e-05
H -7.634526857000e-01  3.486764113000e-01 -1.775224646000e-01 -2.976216992252e-03  2.266415688732e-04 -1.041456095196e-04
3
step 1634
H  7.093231688000e-01  3.079640904000e-01 -1.677373808000e-01  1.417060808709e-03 -8.285839006920e-04  4.087216488106e-04
O -3.510275260000e-02 -1.231765620000e-01  6.200516570000e-02  1.032893095326e-04  2.362083301234e-05 -1.051258940948e-05
H -7.770554509000e-01  3.500802902000e-01 -1.781877987000e-01 -3.206522039668e-03  3.955485514496e-04 -1.901171692193e-04
3
step 1635
H  7.162382233000e-01  3.048070194000e-01 -1.661978638000e-01  1.731433650851e-03 -6.188129207490e-04  2.973056304033e-04
O -3.466897750000e-02 -1.231232873000e-01  6.198533810000e-02  9.352860866790e-05  2.210019339713e-06  6.915143949964e-07
H -7.915122067000e-01  3.521377637000e-01 -1.791861353000e-01 -3.366093614480e-03  5.257188752282e-04 -2.565264576201e-04
3
step 1636
H  7.244745379000e-01  3.025490040000e-01 -1.651357291000e-01  2.016079866980e-03 -4.202695899804e-04  1.919234112916e-04
O -3.428430580000e-02 -1.231572227000e-01  6.201121700000e-02  8.121673429211e-05 -1.614555518021e-05  1.032599543849e-05
H -8.065113453000e-01  3.546807326000e-01 -1.804326015000e-01 -3.455432509473e-03  6.185742901850e-04 -3.041001860397e-04
3
step 1637
H  7.338804645000e-01  3.011293389000e-01 -1.645183871000e-01  2.262116183514e-03 -2.376648519162e-04  9.509519626568e-05
O -3.395826890000e-02 -1.232645732000e-01  6.207569850000e-02  6.710508127888e-05 -3.131950159816e-05  1.831853547269e-05
H -8.217498848000e-01  3.575507620000e-01 -1.818472446000e-01 -3.477586019352e-03  6.768342385470e-04 -3.342202496529e-04
3
step 1638
H  7.442697851000e-01  3.004692547000e-01 -1.643035734000e-01  2.462782853201e-03 -7.448883797026e-05  8.692492548555e-06
O -3.369708500000e-02 -1.234312923000e-01  6.217151820000e-02  5.192300757154e-05 -4.331176963282e-05  2.466254307391e-05
H -8.369428835000e-01  3.606035500000e-01 -1.833572844000e-01 -3.437374001551e-03  7.039999638996e-04 -3.486621320784e-04
3
step 1639
H  7.554316986000e-01  3.004775046000e-01 -1.644423212000e-01  2.613630303944e-03  6.703047751610e-05 -6.608550413929e-05
O -3.350390290000e-02 -1.236435844000e-01  6.229151460000e-02  3.632186650510e-05 -5.222466348215e-05  2.940516383427e-05
H -8.518295370000e-01  3.637113003000e-01 -1.848983050000e-01 -3.340686725059e-03  7.039294009263e-04 -3.493797927587e-04
3
step 1640
H  7.671410499000e-01  3.010558226000e-01 -1.648818721000e-01  2.712464268170e-03  1.858432571920e-04 -1.286687224988e-04
O -3.337924080000e-02 -1.238882980000e-01  6.242883590000e-02  2.084230109447e-05 -5.823755946248e-05  3.263454090420e-05
H -8.661764481000e-01  3.667634708000e-01 -1.864146249000e-01 -3.193911663392e-03  6.805211024740e-04 -3.383460283465e-04
3
step 1641
H  7.791678362000e-01  3.021037753000e-01 -1.655682709000e-01  2.759104903317e-03  2.819070224857e-04 -1.790263629373e-04
O -3.332151680000e-02 -1.241532076000e-01  6.257709180000e-02  5.902409640638e-06 -6.158262470299e-05  3.446740007783e-05
H -8.797787076000e-01  3.696663806000e-01 -1.878590916000e-01 -3.003505628001e-03  6.375017552734e-04 -3.174452226530e-04
3
step 1642
H  7.912853286000e-01  3.035227248000e-01 -1.664484897000e-01  2.755031796590e-03  3.559715409846e-04 -2.175528823942e-04
O -3.332759030000e-02 -1.244271931000e-01  6.273045200000e-02 -8.198309471441e-06 -6.252318703692e-05  3.503786448533e-05
H -8.924594202000e-01  3.723420989000e-01 -1.891925134000e-01 -2.775702802947e-03  5.783002846614e-04 -2.884098824834e-04
3
step 1643
H  8.032764721000e-01  3.052187986000e-01 -1.674720251000e-01  2.702984557594e-03  4.093564001686e-04 -2.449496732579e-04
O -3.339325830000e-02 -1.247003333000e-01  6.288369990000e-02 -2.126494756920e-05 -6.133595369909e-05  3.448811598083e-05
H -9.040682307000e-01  3.747269505000e-01 -1.903828987000e-01 -2.516337133000e-03  5.059883352133e-04 -2.527907202521e-04
3
step 1644
H  8.149385114000e-01  3.071049064000e-01 -1.685919868000e-01  2.606574280884e-03  4.437477337544e-04 -2.621165288556e-04
O -3.351367480000e-02 -1.249639296000e-01  6.303224940000e-02 -3.318830277208e-05 -5.829743537012e-05  3.296115006161e-05
H -9.144792953000e-01  3.767698839000e-01 -1.914046256000e-01 -2.230753983934e-03  4.232678695419e-04 -2.119505882274e-04
3
step 1645
H  8.260859913000e-01  3.091019308000e-01 -1.697657453000e-01  2.469941244454e-03  4.610284308270e-04 -2.700607485432e-04
O -3.368368130000e-02 -1.252104805000e-01  6.317213520000e-02 -4.392472632503e-05 -5.367440186800e-05  3.059563346056e-05
H -9.235890347000e-01  3.784308682000e-01 -1.922376285000e-01 -1.923786862278e-03  3.324896169697e-04 -1.670740456953e-04
3
step 1646
H  8.365523869000e-01  3.111392579000e-01 -1.709552249000e-01  2.297476982049e-03  4.631470890120e-04 -2.698267667156e-04
O -3.389804980000e-02 -1.254336217000e-01  6.329998460000e-02 -5.347718939687e-05 -4.771797180775e-05  2.752261300541e-05
H -9.313139021000e-01  3.796794225000e-01 -1.928666514000e-01 -1.599780041906e-03  2.356906382447e-04 -1.191866669852e-04
3
step 1647
H  8.461906726000e-01  3.131548221000e-01 -1.721269359000e-01  2.093615304858e-03  4.520244180875e-04 -2.624457526416e-04
O -3.415164760000e-02 -1.256280492000e-01  6.341297910000e-02 -6.187876338171e-05 -4.066072828217e-05  2.386383805106e-05
H -9.375883340000e-01  3.804933416000e-01 -1.932806030000e-01 -1.262641624544e-03  1.346424721876e-04 -6.917968845828e-05
3
step 1648
H  8.548731226000e-01  3.150948174000e-01 -1.732518261000e-01  1.862687646737e-03  4.294927332747e-04 -2.489029641757e-04
O -3.443953630000e-02 -1.257894342000e-01  6.350881140000e-02 -6.917915821892e-05 -3.271615205429e-05  1.973130794778e-05
H -9.423629823000e-01  3.808576471000e-01 -1.934720266000e-01 -9.159130514058e-04  3.090273803763e-05 -1.783635134646e-05
3
step 1649
H  8.624906145000e-01  3.169132121000e-01 -1.743050273000e-01  1.608833760013e-03  3.972618736463e-04 -2.301191939520e-04
O -3.475701820000e-02 -1.259143406000e-01  6.358564310000e-02 -7.543402161441e-05 -2.407981916688e-05  1.522774285715e-05
H -9.456032739000e-01  3.807637642000e-01 -1.934366847000e-01 -5.628492150449e-04 -7.413201888281e-05  3.414121145508e-05
3
step 1650
H  8.689516488000e-01  3.185711627000e-01 -1.752655451000e-01  1.335957723909e-03  3.569052970565e-04 -2.069430717709e-04
O -3.509964170000e-02 -1.260001510000e-01  6.364206580000e-02 -8.069673404373e-05 -1.493184644296e-05  1.044777221959e-05
H -9.472883436000e-01  3.802089352000e-01 -1.931732648000e-01 -2.065053363297e-04 -1.791735500681e-04  8.610523029796e-05
3
step 1651
H  8.741812667000e-01  3.200364065000e-01 -1.761159375000e-01  1.047719287007e-03  3.098620136863e-04 -1.801518965269e-04
O -3.546317640000e-02 -1.260450057000e-01  6.367706910000e-02 -8.501241156220e-05 -5.440210052782e-06  5.479580324751e-06
H -9.474103536000e-01  3.791958586000e-01 -1.926831981000e-01  1.501762271459e-04 -2.829918556339e-04  1.374370027066e-04
3
step 1652
H  8.781199941000e-01  3.212826924000e-01 -1.768420120000e-01  7.475510543218e-04  2.574491883703e-04 -1.504582276322e-04
O -3.584356540000e-02 -1.260477570000e-01  6.369001640000e-02 -8.841351304607e-05  4.235410250873e-06  4.068901380905e-07
H -9.459741867000e-01  3.777325400000e-01 -1.919705859000e-01  5.042791635108e-04 -3.843668548288e-04  1.875224612289e-04
3
step 1653
H  8.807229103000e-01  3.222892839000e-01 -1.774325621000e-01  4.386938396386e-04  2.008813891990e-04 -1.185201561184e-04
O -3.623686220000e-02 -1.260079426000e-01  6.368062970000e-02 -9.091659476205e-05  1.393945778330e-05 -4.688870031460e-06
H -9.429975251000e-01  3.758323546000e-01 -1.910422331000e-01  8.528263479253e-04 -4.820412404417e-04  2.357283629462e-04
3
step 1654
H  8.819589009000e-01  3.230405582000e-01 -1.778791540000e-01  1.242448898654e-04  1.412950288110e-04 -8.495431835583e-05
O -3.663915510000e-02 -1.259257761000e-01  6.364898520000e-02 -9.251975059108e-05  2.351592332792e-05 -9.726157599242e-06
H -9.385113037000e-01  3.735143104000e-01 -1.899077824000e-01  1.192690606955e-03 -5.746720807483e-04  2.813778024720e-04
3
step 1655
H  8.818101482000e-01  3.235257235000e-01 -1.781759774000e-01 -1.927837703523e-04  7.977647164918e-05 -5.035103987273e-05
O -3.704648080000e-02 -1.258021603000e-01  6.359551840000e-02 -9.320129100101e-05  3.280388838312e-05 -1.462097533807e-05
H -9.325605698000e-01  3.708035342000e-01 -1.885799620000e-01  1.520515479784e-03 -6.607882723736e-04  3.237286001268e-04
3
step 1656
H  8.802718954000e-01  3.237386634000e-01 -1.783197642000e-01 -5.094046125131e-04  1.739145767404e-05 -1.529010083349e-05
O -3.745473770000e-02 -1.256387170000e-01  6.352104040000e-02 -9.291865971270e-05  4.163289928099e-05 -1.928440759367e-05
H -9.252056300000e-01  3.677319074000e-01 -1.870749095000e-01  1.832637012482e-03 -7.387462515930e-04  3.619507301978e-04
3
step 1657
H  8.773524681000e-01  3.236779120000e-01 -1.783097775000e-01 -8.225910212473e-04 -4.478374607430e-05  1.964257056362e-05
O -3.785959020000e-02 -1.254378406000e-01  6.342676510000e-02 -9.160780289811e-05  4.981825902754e-05 -2.362010164772e-05
H -9.165235939000e-01  3.643389393000e-01 -1.854126162000e-01  2.125010365564e-03 -8.066863775746e-04  3.951040188884e-04
3
step 1658
H  8.730735946000e-01  3.233467713000e-01 -1.781478767000e-01 -1.129210136760e-03 -1.056290729568e-04  5.383697051105e-05
O -3.825637610000e-02 -1.252027691000e-01  6.331434650000e-02 -8.918424337201e-05  5.715682652714e-05 -2.752203705576e-05
H -9.066101635000e-01  3.606727845000e-01 -1.836174471000e-01  2.393159345262e-03 -8.625003226586e-04  4.221212452249e-04
3
step 1659
H  8.674710155000e-01  3.227535768000e-01 -1.778386628000e-01 -1.425959376954e-03 -1.639471282383e-04  8.664099145401e-05
O -3.864002050000e-02 -1.249376746000e-01  6.318592620000e-02 -8.554529754106e-05  6.342328662296e-05 -3.087254639170e-05
H -8.955816188000e-01  3.567914016000e-01 -1.817187324000e-01  2.632148689372e-03 -9.038065625008e-04  4.417953650300e-04
3
step 1660
H  8.605953591000e-01  3.219121086000e-01 -1.773897017000e-01 -1.709307836837e-03 -2.184296605907e-04  1.173424305207e-04
O -3.900496290000e-02 -1.246477668000e-01  6.304418810000e-02 -8.057459615136e-05  6.836760860485e-05 -3.354097136528e-05
H -8.835768488000e-01  3.527637856000e-01 -1.797513996000e-01  2.836597291245e-03 -9.279446805704e-04  4.527762746351e-04
3
step 1661
H  8.525132642000e-01  3.208421502000e-01 -1.768118267000e-01 -1.975445422114e-03 -2.676248838073e-04  1.451514093450e-04
O -3.934510990000e-02 -1.243394057000e-01  6.289241700000e-02 -7.414968133850e-05  7.171431941577e-05 -3.538332913698e-05
H -8.707592223000e-01  3.486711758000e-01 -1.777565936000e-01  3.000748360509e-03 -9.319973547987e-04  4.535816487891e-04
3
step 1662
H  8.433087004000e-01  3.195701861000e-01 -1.761195158000e-01 -2.220245997551e-03 -3.099077376885e-04  1.691845080254e-04
O -3.965382930000e-02 -1.240202117000e-01  6.273455690000e-02 -6.615362161205e-05  7.316460632509e-05 -3.624337736775e-05
H -8.573180049000e-01  3.446080957000e-01 -1.757822132000e-01  3.118617419270e-03 -9.128526515615e-04  4.426282704911e-04
3
step 1663
H  8.330844131000e-01  3.181302203000e-01 -1.753313329000e-01 -2.439254578953e-03 -3.434576317022e-04  1.884529261600e-04
O -3.992400470000e-02 -1.236991594000e-01  6.257525980000e-02 -5.649145841749e-05  7.240240096806e-05 -3.595574994485e-05
H -8.434689340000e-01  3.406830167000e-01 -1.738832576000e-01  3.184239942176e-03 -8.673202623729e-04  4.182909378398e-04
3
step 1664
H  8.219633566000e-01  3.165646690000e-01 -1.744704085000e-01 -2.627705548712e-03 -3.662467157237e-04  2.018564673722e-04
O -4.014817280000e-02 -1.233866353000e-01  6.241991660000e-02 -4.511208308064e-05  6.910550980119e-05 -3.435164791283e-05
H -8.294534693000e-01  3.370183798000e-01 -1.721218474000e-01  3.192037363270e-03 -7.923165391356e-04  3.789964672426e-04
3
step 1665
H  8.100899792000e-01  3.149252814000e-01 -1.735649343000e-01 -2.780584200145e-03 -3.760450361563e-04  2.081866704662e-04
O -4.031876990000e-02 -1.230944333000e-01  6.227465660000e-02 -3.203556698941e-05  6.296280574198e-05 -3.126756099670e-05
H -8.155361650000e-01  3.337496408000e-01 -1.705667486000e-01  3.137311217932e-03 -6.851295178257e-04  3.233583239303e-04
3
step 1666
H  7.976311176000e-01  3.132739873000e-01 -1.726486159000e-01 -2.892748655970e-03 -3.704521080278e-04  2.061441793359e-04
O -4.042850850000e-02 -1.228356626000e-01  6.214630150000e-02 -1.738408003339e-05  5.369805237156e-05 -2.655745396494e-05
H -8.019995959000e-01  3.310229724000e-01 -1.692922147000e-01  3.016855889300e-03 -5.437656950296e-04  2.503530133915e-04
3
step 1667
H  7.847762154000e-01  3.116835420000e-01 -1.717610151000e-01 -2.959124383877e-03 -3.469631217732e-04  1.943748312389e-04
O -4.047089400000e-02 -1.226245343000e-01  6.204225850000e-02 -1.412969029329e-06  4.109990359743e-05 -2.010815271287e-05
H -7.891363679000e-01  3.289912750000e-01 -1.683759682000e-01  2.829646506983e-03 -3.673627370022e-04  1.595306138221e-04
3
step 1668
H  7.717365154000e-01  3.102377945000e-01 -1.709476874000e-01 -2.974984066909e-03 -3.030802112206e-04  1.715300400881e-04
O -4.044087310000e-02 -1.224760070000e-01  6.197033980000e-02  1.546439873671e-05  2.505612237582e-05 -1.185707985476e-05
H -7.772380242000e-01  3.278082674000e-01 -1.678961998000e-01  2.577514673121e-03 -1.566254826877e-04  5.123779662540e-05
3
step 1669
H  7.587428288000e-01  3.090313583000e-01 -1.702599960000e-01 -2.936318505895e-03 -2.364774311662e-04  1.363560595040e-04
O -4.033556860000e-02 -1.224052741000e-01  6.193850000000e-02  3.266638726259e-05  5.588215397737e-06 -1.810305717005e-06
H -7.665811426000e-01  3.276206822000e-01 -1.679275982000e-01  2.265682116300e-03  8.578733809268e-05 -7.318343896418e-05
3
step 1670
H  7.460414820000e-01  3.081684360000e-01 -1.697544676000e-01 -2.840290865443e-03 -1.452237961587e-04  8.781438371630e-05
O -4.015501720000e-02 -1.224271058000e-01  6.195449820000e-02  4.945671806722e-05 -1.711925290267e-05  9.942015297282e-06
H -7.574115723000e-01  3.285589722000e-01 -1.685366109000e-01  1.902999290112e-03  3.550205978440e-04 -2.112695917699e-04
3
step 1671
H  7.338881107000e-01  3.077605390000e-01 -1.694915530000e-01 -2.685746261386e-03 -2.805908724196e-05  2.523041113699e-05
O -3.990278450000e-02 -1.225550806000e-01  6.202550020000e-02  6.498871775043e-05 -4.270112588123e-05  2.321599526623e-05
H -7.499284429000e-01  3.307273840000e-01 -1.697763688000e-01  1.501752110062e-03  6.440211303986e-04 -3.594316224545e-04
3
step 1672
H  7.225391475000e-01  3.079228975000e-01 -1.695336821000e-01 -2.473720932265e-03  1.152977132993e-04 -5.154064557456e-05
O -3.958631620000e-02 -1.228007733000e-01  6.215765590000e-02  7.838103708673e-05 -7.061141699024e-05  3.773325852945e-05
H -7.442700924000e-01  3.341946498000e-01 -1.716819126000e-01  1.076969204986e-03  9.438425865465e-04 -5.131076258852e-04
3
step 1673
H  7.122411601000e-01  3.087694822000e-01 -1.699425730000e-01 -2.207868391780e-03  2.838456918364e-04 -1.419514377040e-04
O -3.921689050000e-02 -1.231729846000e-01  6.235569510000e-02  8.881665494046e-05 -1.001429514897e-04  5.313032601037e-05
H -7.405041385000e-01  3.389867288000e-01 -1.742664530000e-01  6.452763257942e-04  1.244258701558e-03 -6.670740587797e-04
3
step 1674
H  7.032186100000e-01  3.104067645000e-01 -1.707758658000e-01 -1.894701629328e-03  4.750606987812e-04 -2.446336460324e-04
O -3.880910250000e-02 -1.236771008000e-01  6.262258690000e-02  9.564804849880e-05 -1.304653334132e-04  6.897757127313e-05
H -7.386234309000e-01  3.450828654000e-01 -1.775193209000e-01  2.234693753749e-04  1.534606243195e-03 -8.158758460989e-04
3
step 1675
H  6.956610712000e-01  3.129266268000e-01 -1.720833046000e-01 -1.543550942263e-03  6.847805837631e-04 -3.573375335499e-04
O -3.837989690000e-02 -1.243146560000e-01  6.295930160000e-02  9.848593522702e-05 -1.606760131034e-04  8.480517482467e-05
H -7.385486104000e-01  3.524157074000e-01 -1.814059909000e-01 -1.729359697329e-04  1.804709694290e-03 -9.542996470968e-04
3
step 1676
H  6.897113583000e-01  3.163991185000e-01 -1.739028426000e-01 -1.166178305613e-03  9.072740947478e-04 -4.769701592573e-04
O -3.794727520000e-02 -1.250831388000e-01  6.336469710000e-02  9.725134602973e-05 -1.898573976466e-04  1.001325798251e-04
H -7.401367530000e-01  3.608754559000e-01 -1.858701729000e-01 -5.309162585124e-04  2.045720566792e-03 -1.077804729647e-03
3
step 1677
H  6.854561189000e-01  3.208659692000e-01 -1.762571584000e-01 -7.760437447948e-04  1.135521511786e-03 -5.997474334428e-04
O -3.752887320000e-02 -1.259760535000e-01  6.383553830000e-02  9.217830387384e-05 -2.171323660189e-04  1.144975089790e-04
H -7.431945339000e-01  3.703173275000e-01 -1.908376068000e-01 -8.407174180909e-04  2.250721143261e-03 -1.182834124750e-03
3
step 1678
H  6.829203819000e-01  3.263358005000e-01 -1.791510915000e-01 -3.873056515912e-04  1.361694998157e-03 -7.214532355975e-04
O -3.714064450000e-02 -1.269832131000e-01  6.436663790000e-02  8.376841975845e-05 -2.417133345110e-04  1.274820879658e-04
H -7.474936736000e-01  3.805709878000e-01 -1.962208764000e-01 -1.096136041145e-03  2.415027170405e-03 -1.266972345318e-03
3
step 1679
H  6.820668981000e-01  3.327818422000e-01 -1.825704262000e-01 -1.370987785648e-05  1.577771520493e-03 -8.377694152764e-04
O -3.679583550000e-02 -1.280912302000e-01  6.495110410000e-02  7.271033290135e-05 -2.629409779133e-04  1.387339544513e-04
H -7.527865628000e-01  3.914506628000e-01 -2.019245842000e-01 -1.294354166062e-03  2.536192727224e-03 -1.328950683994e-03
3
step 1680
H  6.828004100000e-01  3.401425083000e-01 -1.864822148000e-01  3.324534007077e-04  1.776175082911e-03 -9.446209596328e-04
O -3.650437350000e-02 -1.292841478000e-01  6.558066610000e-02  5.978308375906e-05 -2.803096810054e-04  1.479804419902e-04
H -7.588202628000e-01  4.027646145000e-01 -2.078502117000e-01 -1.435449687746e-03  2.613772019554e-03 -1.368527159648e-03
3
step 1681
H  6.849761198000e-01  3.483247330000e-01 -1.908365823000e-01  6.411559500568e-04  1.950343219196e-03 -1.038480017122e-03
O -3.627268780000e-02 -1.305441543000e-01  6.624604620000e-02  4.576434605042e-05 -2.934796837798e-04  1.550357291154e-04
H -7.653478458000e-01  4.143231677000e-01 -2.139002438000e-01 -1.521745063704e-03  2.648941086282e-03 -1.386293441693e-03
3
step 1682
H  6.884110151000e-01  3.572095036000e-01 -1.955697094000e-01  9.051003190963e-04  2.095131204317e-03 -1.116582454568e-03
O -3.610390050000e-02 -1.318523196000e-01  6.693734740000e-02  3.135826849431e-05 -3.022756049994e-04  1.598007799146e-04
H -7.721366963000e-01  4.259448756000e-01 -2.199813399000e-01 -1.557127638621e-03  2.644067318131e-03 -1.383454320787e-03
3
step 1683
H  6.928964400000e-01  3.666587339000e-01 -2.006075330000e-01  1.119831610480e-03  2.207012612890e-03 -1.177035002079e-03
O -3.599827890000e-02 -1.331892971000e-01  6.764442530000e-02  1.715004335339e-05 -3.066732913475e-04  1.622568897376e-04
H -7.789739039000e-01  4.374607796000e-01 -2.260065275000e-01 -1.546435842024e-03  2.602297287983e-03 -1.361616371889e-03
3
step 1684
H  6.982103984000e-01  3.765225525000e-01 -2.058696662000e-01  1.283544450632e-03  2.284081860672e-03 -1.218816020981e-03
O -3.595382450000e-02 -1.345359455000e-01  6.835721930000e-02  3.586790391133e-06 -3.067777804973e-04  1.624544358938e-04
H -7.856691930000e-01  4.487169678000e-01 -2.318965248000e-01 -1.494959885650e-03  2.527205028487e-03 -1.322607832863e-03
3
step 1685
H  7.041284359000e-01  3.866461977000e-01 -2.112731056000e-01  1.396680835191e-03  2.325899781490e-03 -1.241691835705e-03
O -3.596689180000e-02 -1.358738374000e-01  6.906602590000e-02 -9.020582719330e-06 -3.027961994816e-04  1.604987211763e-04
H -7.920559466000e-01  4.595757570000e-01 -2.375803579000e-01 -1.408069146890e-03  2.422517381788e-03 -1.268337807644e-03
3
step 1686
H  7.104324242000e-01  3.968759550000e-01 -2.167354197000e-01  1.461425336581e-03  2.333240940763e-03 -1.246080160585e-03
O -3.603276150000e-02 -1.371856439000e-01  6.976170590000e-02 -2.048189832036e-05 -2.950094106005e-04  1.565349534602e-04
H -7.979908752000e-01  4.699158482000e-01 -2.429954510000e-01 -1.290956963666e-03  2.291916307101e-03 -1.200694533422e-03
3
step 1687
H  7.169170257000e-01  4.070638409000e-01 -2.221772604000e-01  1.481188728580e-03  2.307800787965e-03 -1.232892307943e-03
O -3.614612400000e-02 -1.384553955000e-01  7.043582650000e-02 -3.070535186740e-05 -2.837454903118e-04  1.507340937977e-04
H -8.033528076000e-01  4.796317781000e-01 -2.480873537000e-01 -1.148483605882e-03  2.138909255466e-03 -1.121478273362e-03
3
step 1688
H  7.233939588000e-01  4.170709774000e-01 -2.275241706000e-01  1.460142280764e-03  2.251908463448e-03 -1.203378915857e-03
O -3.630145680000e-02 -1.396686340000e-01  7.108074450000e-02 -3.967340432254e-05 -2.693569975039e-04  1.432806334866e-04
H -8.080409855000e-01  4.886329406000e-01 -2.528092439000e-01 -9.850957795983e-04  1.966755178512e-03 -1.032362709700e-03
3
step 1689
H  7.296943878000e-01  4.267697628000e-01 -2.327077465000e-01  1.402835231943e-03  2.168274052544e-03 -1.158994590860e-03
O -3.649329670000e-02 -1.408124753000e-01  7.168964170000e-02 -4.742024241097e-05 -2.522030002105e-04  1.343629811962e-04
H -8.119731494000e-01  4.968423906000e-01 -2.571213172000e-01 -8.048022543117e-04  1.778433020347e-03 -9.348784148949e-04
3
step 1690
H  7.356698403000e-01  4.360450342000e-01 -2.376662600000e-01  1.313904461266e-03  2.059783547489e-03 -1.101288230667e-03
O -3.671642020000e-02 -1.418756032000e-01  7.225652340000e-02 -5.401250716311e-05 -2.326359384734e-04  1.241663687309e-04
H -8.150836209000e-01  5.041955901000e-01 -2.609901452000e-01 -6.111881154193e-04  1.576640561092e-03 -8.304120882741e-04
3
step 1691
H  7.411920570000e-01  4.447944447000e-01 -2.423448611000e-01  1.197871721947e-03  1.929345096297e-03 -1.031820658808e-03
O -3.696594750000e-02 -1.428482177000e-01  7.277619240000e-02 -5.953388497618e-05 -2.109930536632e-04  1.128682388618e-04
H -8.173215130000e-01  5.106392017000e-01 -2.643880583000e-01 -4.074540842107e-04  1.363814227721e-03 -7.202166717157e-04
3
step 1692
H  7.461521343000e-01  4.529282799000e-01 -2.466954801000e-01  1.059016008999e-03  1.779783046308e-03 -9.521077290316e-04
O -3.723738720000e-02 -1.437219538000e-01  7.324420690000e-02 -6.407352919796e-05 -1.875916986037e-04  1.006357175478e-04
H -8.186491558000e-01  5.161300080000e-01 -2.672925921000e-01 -1.964705702849e-04  1.142162288868e-03 -6.054283813039e-04
3
step 1693
H  7.504592573000e-01  4.603689080000e-01 -2.506765321000e-01  9.013058211517e-04  1.613772669897e-03 -8.635851832330e-04
O -3.752663990000e-02 -1.444897886000e-01  7.365683190000e-02 -6.771790084023e-05 -1.627278199906e-04  8.762473629801e-05
H -8.190407808000e-01  5.206339956000e-01 -2.696860198000e-01  1.916113608613e-05  9.137056924049e-04 -4.870876563543e-04
3
step 1694
H  7.540392498000e-01  4.670500253000e-01 -2.542525112000e-01  7.283767810986e-04  1.433807701026e-03 -7.675912815451e-04
O -3.782997070000e-02 -1.451459468000e-01  7.401099040000e-02 -7.054527420196e-05 -1.366768131734e-04  7.398043899325e-05
H -8.184814812000e-01  5.241256318000e-01 -2.715549817000e-01  2.370447827030e-04  6.803232272037e-04 -3.661623619563e-04
3
step 1695
H  7.568331114000e-01  4.729158223000e-01 -2.573935431000e-01  5.435414266384e-04  1.242192601063e-03 -6.653627066964e-04
O -3.814396500000e-02 -1.456858153000e-01  7.430421740000e-02 -7.262230859771e-05 -1.096960865027e-04  5.983849377146e-05
H -8.169664576000e-01  5.265873443000e-01 -2.728902206000e-01  4.549245850845e-04  4.437989292782e-04 -2.435720977054e-04
3
step 1696
H  7.587956531000e-01  4.779201609000e-01 -2.600749439000e-01  3.498202662462e-04  1.041052482486e-03 -5.580400309616e-04
O -3.846547150000e-02 -1.461058714000e-01  7.453462300000e-02 -7.400205081792e-05 -8.202881414553e-05  4.532706314113e-05
H -8.145005431000e-01  5.280092120000e-01 -2.736864239000e-01  6.706215428932e-04  2.058704478408e-04 -1.202130778131e-04
3
step 1697
H  7.598943063000e-01  4.820258279000e-01 -2.622768203000e-01  1.499865797276e-04  8.323556166286e-04 -4.466798659566e-04
O -3.879153950000e-02 -1.464036301000e-01  7.470086390000e-02 -7.472285179511e-05 -5.390847511623e-05  3.056913977702e-05
H -8.110980060000e-01  5.283888682000e-01 -2.739421770000e-01  8.819712830840e-04 -3.172200811953e-05  3.016696236973e-06
3
step 1698
H  7.601081504000e-01  4.852039094000e-01 -2.639837345000e-01 -5.338461234843e-05  6.179408324281e-04 -3.322696179195e-04
O -3.911935360000e-02 -1.465776118000e-01  7.480212630000e-02 -7.480754838972e-05 -2.556368028351e-05  1.568507429922e-05
H -8.067826196000e-01  5.277316201000e-01 -2.736600255000e-01  1.086761363672e-03 -2.671863575782e-04  1.251920984754e-04
3
step 1699
H  7.594271501000e-01  4.874332830000e-01 -2.651844336000e-01 -2.578597947549e-04  3.995539520969e-04 -2.157470654276e-04
O -3.944616280000e-02 -1.466273319000e-01  7.483812030000e-02 -7.426328969094e-05  2.776410960458e-06  7.953727427754e-07
H -8.015880127000e-01  5.260507832000e-01 -2.728466503000e-01  1.282672056052e-03 -4.986290380976e-04  2.453352761144e-04
3
step 1700
H  7.578516800000e-01  4.887003122000e-01 -2.658716864000e-01 -4.610893900685e-04  1.788869465557e-04 -9.802134499105e-05
O -3.976921420000e-02 -1.465533161000e-01  7.480908650000e-02 -7.308156901398e-05  3.087655518405e-05 -1.397638712583e-05
H -7.955582578000e-01  5.233682346000e-01 -2.715131542000e-01  1.467218699756e-03 -7.240057301360e-04  3.623902529112e-04
3
step 1701
H  7.553922652000e-01  4.889986806000e-01 -2.660421954000e-01 -6.607538022446e-04 -4.238471926034e-05  2.000705526655e-05
O -4.008568250000e-02 -1.463571384000e-01  7.471581620000e-02 -7.123800906168e-05  5.849009509646e-05 -2.850079947826e-05
H -7.887487265000e-01  5.197151792000e-01 -2.696754584000e-01  1.637694578299e-03 -9.410736217922e-04  4.751983233195e-04
3
step 1702
H  7.520695787000e-01  4.883294135000e-01 -2.656966093000e-01 -8.545072341009e-04 -2.625603254811e-04  1.374238701406e-04
O -4.039260130000e-02 -1.460414831000e-01  7.455968270000e-02 -6.869268189655e-05  8.535351545227e-05 -4.263971867891e-05
H -7.812271773000e-01  5.151331204000e-01 -2.673548053000e-01  1.791119997926e-03 -1.147346827561e-03  5.824749733642e-04
3
step 1703
H  7.479146732000e-01  4.867010769000e-01 -2.648396314000e-01 -1.039924480541e-03 -4.798728586043e-04  2.532790889804e-04
O -4.068679600000e-02 -1.456102298000e-01  7.434268600000e-02 -6.539076716891e-05  1.111815063402e-04 -5.624364465637e-05
H -7.730750562000e-01  5.096750166000e-01 -2.645783567000e-01  1.924199543909e-03 -1.340058764194e-03  6.827903806325e-04
3
step 1704
H  7.429694439000e-01  4.841301588000e-01 -2.634802235000e-01 -1.214450180991e-03 -6.924481053580e-04  3.665650513188e-04
O -4.096482050000e-02 -1.450685598000e-01  7.406750780000e-02 -6.126394628073e-05  1.356627624077e-04 -6.914937796560e-05
H -7.643889592000e-01  5.034065810000e-01 -2.613798671000e-01  2.033294380125e-03 -1.516137448860e-03  7.745564736906e-04
3
step 1705
H  7.372873050000e-01  4.806416262000e-01 -2.616319067000e-01 -1.375352364034e-03 -8.982654378429e-04  4.761953972838e-04
O -4.122290240000e-02 -1.444230769000e-01  7.373757600000e-02 -5.623302158519e-05  1.584572036751e-04 -8.117845192502e-05
H -7.552821748000e-01  4.964076541000e-01 -2.578003950000e-01  2.114417956848e-03 -1.672201613769e-03  8.560246054305e-04
3
step 1706
H  7.309340585000e-01  4.762696490000e-01 -2.593131495000e-01 -1.519682688598e-03 -1.095122072658e-03  5.809858875616e-04
O -4.145690250000e-02 -1.436819380000e-01  7.335713420000e-02 -5.021237313983e-05  1.791953721601e-04 -9.213666180051e-05
H -7.458861844000e-01  4.887735376000e-01 -2.538889969000e-01  2.163267052614e-03 -1.804588301475e-03  9.252993072956e-04
3
step 1707
H  7.239889188000e-01  4.710584702000e-01 -2.565478358000e-01 -1.644247139094e-03 -1.280603770606e-03  6.796385967782e-04
O -4.166229910000e-02 -1.428549803000e-01  7.293130970000e-02 -4.311698437804e-05  1.974810510770e-04 -1.018153538356e-04
H -7.363519331000e-01  4.806161258000e-01 -2.497033182000e-01  2.175303225381e-03 -1.909424616318e-03  9.803751500580e-04
3
step 1708
H  7.165456381000e-01  4.650633863000e-01 -2.533657918000e-01 -1.745592527164e-03 -1.452066282884e-03  7.707319532281e-04
O -4.183420910000e-02 -1.419538278000e-01  7.246617200000e-02 -3.487272235300e-05  2.128982585113e-04 -1.099951552110e-04
H -7.268506170000e-01  4.720646114000e-01 -2.453099643000e-01  2.145900845303e-03 -1.982757043398e-03  1.019203997367e-03
3
step 1709
H  7.087136488000e-01  4.583517794000e-01 -2.498033415000e-01 -1.820016557086e-03 -1.606633627809e-03  8.527198155257e-04
O -4.196746210000e-02 -1.409919576000e-01  7.196876800000e-02 -2.543036165443e-05  2.250238406040e-04 -1.164526706020e-04
H -7.175736590000e-01  4.632654848000e-01 -2.407845035000e-01  2.070577538580e-03 -2.020751636792e-03  1.039799161212e-03
3
step 1710
H  7.006191008000e-01  4.510041129000e-01 -2.459038411000e-01 -1.863610363774e-03 -1.741220566567e-03  9.239435035538e-04
O -4.205674420000e-02 -1.399846970000e-01  7.144712200000e-02 -1.478348455775e-05  2.334467430097e-04 -1.209706755729e-04
H -7.087314794000e-01  4.543814886000e-01 -2.362109261000e-01  1.945319320172e-03 -2.019974753861e-03  1.040380961772e-03
3
step 1711
H  6.924056323000e-01  4.431147673000e-01 -2.417181290000e-01 -1.872344310984e-03 -1.852588022363e-03  9.826616427113e-04
O -4.209682890000e-02 -1.389491200000e-01  7.091018210000e-02 -2.989910007583e-06  2.377945548614e-04 -1.233519302265e-04
H -7.005506267000e-01  4.455891603000e-01 -2.316803741000e-01  1.767006248011e-03 -1.977756173218e-03  1.019564386428e-03
3
step 1712
H  6.842346557000e-01  4.347925504000e-01 -2.373047999000e-01 -1.842208906997e-03 -1.937441563244e-03  1.027103087286e-03
O -4.208290820000e-02 -1.379038127000e-01  7.036769830000e-02  9.804829577748e-06  2.377670098412e-04 -1.234365079744e-04
H -6.932688229000e-01  4.370746089000e-01 -2.272889577000e-01  1.533928533307e-03 -1.892620302736e-03  9.765817217342e-04
3
step 1713
H  6.762848950000e-01  4.261606714000e-01 -2.327301912000e-01 -1.769421730529e-03 -1.992581816375e-03  1.055547745387e-03
O -4.201102910000e-02 -1.368684768000e-01  6.983001820000e-02  2.334502169917e-05  2.331743051159e-04 -1.211216566577e-04
H -6.871275785000e-01  4.290272847000e-01 -2.231345369000e-01  1.246352987017e-03 -1.764744036663e-03  9.115190447360e-04
3
step 1714
H  6.687508618000e-01  4.173559350000e-01 -2.280679496000e-01 -1.650708091899e-03 -2.015112980091e-03  1.066438651433e-03
O -4.187862140000e-02 -1.358633592000e-01  6.930779110000e-02  3.724854662423e-05  2.239761927759e-04 -1.163821350549e-04
H -6.823622807000e-01  4.216317485000e-01 -2.193124687000e-01  9.070644856463e-04 -1.596370657717e-03  8.255299871377e-04
3
step 1715
H  6.618399363000e-01  4.085268911000e-01 -2.233980371000e-01 -1.483655868296e-03 -2.002709433730e-03  1.058525313617e-03
O -4.168507580000e-02 -1.349085137000e-01  6.881158540000e-02  5.100349939676e-05  2.103160248588e-04 -1.092881495990e-04
H -6.791900703000e-01  4.150578202000e-01 -2.159105179000e-01  5.217753708833e-04 -1.392084907891e-03  7.209779171567e-04
3
step 1716
H  6.557677379000e-01  3.998306953000e-01 -2.188050433000e-01 -1.267131773665e-03 -1.953929168518e-03  1.031032348305e-03
O -4.143230170000e-02 -1.340229330000e-01  6.835143620000e-02  6.398454954928e-05  1.925426257224e-04 -1.000171064928e-04
H -6.777963471000e-01  4.094499405000e-01 -2.130033603000e-01  9.928080972764e-05 -1.158849204715e-03  6.014547675916e-04
3
step 1717
H  6.507515639000e-01  3.914285161000e-01 -2.143757153000e-01 -1.001729744646e-03 -1.868550055303e-03  9.838405887737e-04
O -4.112516210000e-02 -1.332236184000e-01  6.793635920000e-02  7.549408950526e-05  1.712137020326e-04 -8.885593379185e-05
H -6.783212873000e-01  4.049170031000e-01 -2.106473286000e-01 -3.487489861986e-04 -9.057238485784e-04  4.716365227434e-04
3
step 1718
H  6.470018363000e-01  3.834794528000e-01 -2.101956854000e-01 -6.901905610307e-04 -1.747877863347e-03  9.176534615198e-04
O -4.077167070000e-02 -1.325246821000e-01  6.757387880000e-02  8.482722546812e-05  1.470768227119e-04 -7.619174736311e-05
H -6.808481675000e-01  4.015241639000e-01 -2.088761799000e-01 -8.083830429419e-04 -6.432595147043e-04  3.369689693202e-04
3
step 1719
H  6.447118685000e-01  3.761332475000e-01 -2.063455455000e-01 -3.377165062455e-04 -1.594967228425e-03  8.341167837849e-04
O -4.038285890000e-02 -1.319365837000e-01  6.726962320000e-02  9.135332914787e-05  1.210284213811e-04 -6.249103441959e-05
H -6.853952573000e-01  3.992879902000e-01 -2.076985923000e-01 -1.264409675670e-03 -3.826277474580e-04  2.032177517777e-04
3
step 1720
H  6.440465585000e-01  3.695222693000e-01 -2.028965254000e-01  4.790717126521e-05 -1.414690154272e-03  7.358568173718e-04
O -3.997225920000e-02 -1.314655908000e-01  6.702703450000e-02  9.459978815282e-05  9.405575800548e-05 -4.826984584069e-05
H -6.919127195000e-01  3.981758784000e-01 -2.070978691000e-01 -1.701544035660e-03 -1.346310766125e-04  7.595632566135e-05
3
step 1721
H  6.451310928000e-01  3.637536264000e-01 -1.999062354000e-01  4.564692226015e-04 -1.213591330370e-03  6.264036124900e-04
O -3.955503840000e-02 -1.311135239000e-01  6.684722510000e-02  9.431946066308e-05  6.716945965000e-05 -3.405889179550e-05
H -7.002850694000e-01  3.981098653000e-01 -2.070339163000e-01 -2.105653388316e-03  9.122412901584e-05 -3.991322335411e-05
3
step 1722
H  6.480410134000e-01  3.589024167000e-01 -1.974150146000e-01  8.758030909676e-04 -9.995153142635e-04  5.099913543546e-04
O -3.914689170000e-02 -1.308778067000e-01  6.672899310000e-02  9.052605062333e-05  4.133613437131e-05 -2.036837681747e-05
H -7.103387976000e-01  3.989741593000e-01 -2.074471404000e-01 -2.464788981796e-03  2.874271615499e-04 -1.405212770350e-04
3
step 1723
H  6.527950399000e-01  3.550071027000e-01 -1.954434208000e-01  1.292551169421e-03 -7.810348649706e-04  3.912510346290e-04
O -3.876286620000e-02 -1.307518011000e-01  6.666898620000e-02  8.348952300076e-05  1.741880613999e-05 -7.656555696501e-06
H -7.218538587000e-01  4.006250728000e-01 -2.082635850000e-01 -2.769876912330e-03  4.488403856243e-04 -2.232249624593e-04
3
step 1724
H  6.593518250000e-01  3.520677641000e-01 -1.939912687000e-01  1.693131084385e-03 -5.667588252105e-04  2.748375880260e-04
O -3.841629450000e-02 -1.307253788000e-01  6.666199240000e-02  7.369302640871e-05 -3.869202270048e-06  3.694995787402e-06
H -7.345773397000e-01  4.029018561000e-01 -2.094005296000e-01 -3.015002702761e-03  5.727417032440e-04 -2.866293478777e-04
3
step 1725
H  6.676112322000e-01  3.500475294000e-01 -1.930383817000e-01  2.064753069553e-03 -3.646364793709e-04  1.650542771497e-04
O -3.811799580000e-02 -1.307856596000e-01  6.670132020000e-02  6.176271409984e-05 -2.199315818426e-05  1.339736118119e-05
H -7.482374389000e-01  4.056370009000e-01 -2.107718111000e-01 -3.197317002219e-03  6.585894154865e-04 -3.304652134008e-04
3
step 1726
H  6.774199940000e-01  3.488769159000e-01 -1.925469175000e-01  2.396324993047e-03 -1.813757666615e-04  6.553767546693e-05
O -3.787582350000e-02 -1.309178358000e-01  6.677922950000e-02  4.838729842843e-05 -3.660782550244e-05  2.126093420582e-05
H -7.625563096000e-01  4.086650173000e-01 -2.122923530000e-01 -3.316663856342e-03  7.076127680162e-04 -3.553767678454e-04
3
step 1727
H  6.885809092000e-01  3.484603527000e-01 -1.924648769000e-01  2.679109945628e-03 -2.205932839871e-05 -2.095111900861e-05
O -3.769456990000e-02 -1.311060061000e-01  6.688736970000e-02  3.424313168660e-05 -4.755154064527e-05  2.719303725024e-05
H -7.772607851000e-01  4.118291540000e-01 -2.138816297000e-01 -3.375047112779e-03  7.223319336262e-04 -3.626728156341e-04
3
step 1728
H  7.008642557000e-01  3.486838799000e-01 -1.927302558000e-01  2.907063934608e-03  1.100073050058e-04 -9.261017925593e-05
O -3.757616990000e-02 -1.313339482000e-01  6.701718940000e-02  1.993651057744e-05 -5.482659826925e-05  3.118816679562e-05
H -7.920905539000e-01  4.149859744000e-01 -2.154660176000e-01 -3.376048506366e-03  7.060921238300e-04 -3.540855070317e-04
3
step 1729
H  7.140199427000e-01  3.494230007000e-01 -1.932752868000e-01  3.076854629632e-03  2.132337354648e-04 -1.485649394565e-04
O -3.752011020000e-02 -1.315857808000e-01  6.716029000000e-02  5.968173033512e-06 -5.857028008554e-05  3.331300501167e-05
H -8.068037924000e-01  4.180080003000e-01 -2.169801488000e-01 -3.324280708081e-03  6.626644329041e-04 -3.315641253181e-04
3
step 1730
H  7.277890876000e-01  3.505498383000e-01 -1.940303127000e-01  3.187621086547e-03  2.875236879673e-04 -1.887503035875e-04
O -3.752394380000e-02 -1.318464830000e-01  6.730870370000e-02 -7.280844546580e-06 -5.902150006196e-05  3.368896756818e-05
H -8.211805533000e-01  4.207847951000e-01 -2.183674574000e-01 -3.224922935940e-03  5.959360135491e-04 -2.971155670214e-04
3
step 1731
H  7.419140659000e-01  3.519390530000e-01 -1.949269963000e-01  3.240565463102e-03  3.339644731594e-04 -2.137439582823e-04
O -3.758382320000e-02 -1.321022640000e-01  6.745509420000e-02 -1.954660181173e-05 -5.648749533543e-05  3.247461888688e-05
H -8.350243353000e-01  4.232228964000e-01 -2.195801373000e-01 -3.083357165086e-03  5.096909874741e-04 -2.526918488968e-04
3
step 1732
H  7.561465147000e-01  3.534722829000e-01 -1.959007358000e-01  3.238470062312e-03  3.544916200949e-04 -2.245856069207e-04
O -3.769499160000e-02 -1.323407917000e-01  6.759288150000e-02 -3.066869678660e-05 -5.131396368007e-05  2.984986552348e-05
H -8.481622875000e-01  4.252449812000e-01 -2.205787044000e-01 -2.904904114308e-03  4.074713764131e-04 -2.001187907335e-04
3
step 1733
H  7.702531565000e-01  3.550411259000e-01 -1.968922922000e-01  3.185215687719e-03  3.515763869866e-04 -2.226080426850e-04
O -3.785219770000e-02 -1.325513005000e-01  6.771630340000e-02 -4.057097155857e-05 -4.386066335491e-05  2.600295616141e-05
H -8.604444687000e-01  4.267885826000e-01 -2.213313298000e-01 -2.694648792713e-03  2.925023795155e-04 -1.410577375584e-04
3
step 1734
H  7.840195888000e-01  3.565488453000e-01 -1.978487265000e-01  3.085351884394e-03  3.279632058766e-04 -2.092948752852e-04
O -3.805001860000e-02 -1.327246061000e-01  6.782042730000e-02 -4.924073695140e-05 -3.448302385463e-05  2.112072703618e-05
H -8.717425259000e-01  4.278046008000e-01 -2.218130675000e-01 -2.457340545046e-03  1.676655414068e-04 -7.699190597315e-05
3
step 1735
H  7.972523460000e-01  3.579110548000e-01 -1.987237825000e-01  2.943745737642e-03  2.864676523012e-04 -1.861708994019e-04
O -3.828309190000e-02 -1.328530534000e-01  6.790112590000e-02 -5.670918566635e-05 -2.351967614265e-05  1.538190994907e-05
H -8.819480785000e-01  4.282557844000e-01 -2.220050679000e-01 -2.197351194773e-03  3.550559958919e-05 -9.230082116162e-06
3
step 1736
H  8.097796161000e-01  3.590556564000e-01 -1.994778643000e-01  2.765316648197e-03  2.298337331968e-04 -1.547245883198e-04
O -3.854626740000e-02 -1.329304213000e-01  6.795503070000e-02 -6.303457546683e-05 -1.128507958155e-05  8.953164613992e-06
H -8.909710300000e-01  4.281153020000e-01 -2.218938378000e-01 -1.918675309203e-03 -1.017409054878e-04  6.107842650154e-05
3
step 1737
H  8.214509822000e-01  3.599222758000e-01 -2.000777410000e-01  2.554851685503e-03  1.606428320046e-04 -1.163584342701e-04
O -3.883469260000e-02 -1.329518064000e-01  6.797947290000e-02 -6.828877206930e-05  1.933709784387e-06  1.987177109504e-06
H -8.987379553000e-01  4.273654736000e-01 -2.214705849000e-01 -1.624959120388e-03 -2.421046191564e-04  1.329223574419e-04
3
step 1738
H  8.321365230000e-01  3.604614041000e-01 -2.004960896000e-01  2.316890598917e-03  8.126445126286e-05 -7.236174623696e-05
O -3.914384640000e-02 -1.329134999000e-01  6.797242010000e-02 -7.254692318898e-05  1.587714893386e-05 -5.377591527795e-06
H -9.051906654000e-01  4.259967013000e-01 -2.207306655000e-01 -1.319548635199e-03 -3.838360120999e-04  2.054038966335e-04
3
step 1739
H  8.417255475000e-01  3.606334019000e-01 -2.007109617000e-01  2.055666828575e-03 -6.161705826374e-06 -2.390041085334e-05
O -3.946953370000e-02 -1.328128692000e-01  6.793241490000e-02 -7.587997576553e-05  3.031114633452e-05 -1.301599566851e-05
H -9.102850154000e-01  4.240066149000e-01 -2.196731437000e-01 -1.005549913489e-03 -5.253558121153e-04  2.777129480492e-04
3
step 1740
H  8.501251804000e-01  3.604074844000e-01 -2.007052365000e-01  1.775091506796e-03 -9.972158033199e-05  2.798127004586e-05
O -3.980785420000e-02 -1.326482541000e-01  6.785852010000e-02 -7.834941927979e-05  4.502355139278e-05 -2.081454123592e-05
H -9.139899965000e-01  4.213994360000e-01 -2.183004647000e-01 -6.858968747323e-04 -6.652056278591e-04  3.491015222320e-04
3
step 1741
H  8.572589562000e-01  3.597607618000e-01 -2.004661042000e-01  1.478768807593e-03 -1.977079158126e-04  8.235056429922e-05
O -4.015515110000e-02 -1.324188787000e-01  6.775027170000e-02 -8.000370663817e-05  5.981989425484e-05 -2.866920075419e-05
H -9.162871378000e-01  4.181855567000e-01 -2.166182383000e-01 -3.634236071320e-04 -8.019997336342e-04  4.188589247496e-04
3
step 1742
H  8.630655388000e-01  3.586773889000e-01 -1.999846061000e-01  1.170033319410e-03 -2.985924253218e-04  1.383712295945e-04
O -4.050794780000e-02 -1.321247843000e-01  6.760764270000e-02 -8.087589095068e-05  7.451861365255e-05 -3.648295870581e-05
H -9.171702311000e-01  4.143813248000e-01 -2.146351287000e-01 -4.093941020150e-05 -9.343787420121e-04  4.862878405714e-04
3
step 1743
H  8.674976429000e-01  3.571478497000e-01 -1.992552501000e-01  8.520017891630e-04 -4.009928982835e-04  1.952856636008e-04
O -4.086287700000e-02 -1.317667838000e-01  6.743101790000e-02 -8.098203481291e-05  8.894616590246e-05 -4.416321975822e-05
H -9.166453890000e-01  4.100090279000e-01 -2.123628476000e-01  2.786941194039e-04 -1.060964643193e-03  5.506812366591e-04
3
step 1744
H  8.705212063000e-01  3.551683943000e-01 -1.982757071000e-01  5.276355762141e-04 -5.036376561721e-04  2.523955959424e-04
O -4.121660260000e-02 -1.313464373000e-01  6.722118070000e-02 -8.032035095256e-05  1.029321521890e-04 -5.161921241940e-05
H -9.147314443000e-01  4.050970725000e-01 -2.098162466000e-01  5.924869756851e-04 -1.180319062368e-03  6.113008872735e-04
3
step 1745
H  8.721148579000e-01  3.527406349000e-01 -1.970465955000e-01  1.998082258876e-04 -6.053278140970e-04  3.090415734210e-04
O -4.156574150000e-02 -1.308660488000e-01  6.697931030000e-02 -7.887041601247e-05  1.163041624439e-04 -5.875926470464e-05
H -9.114606746000e-01  3.996803331000e-01 -2.070134972000e-01  8.972410199837e-04 -1.290899556114e-03  6.673549119377e-04
3
step 1746
H  8.722696811000e-01  3.498713128000e-01 -1.955713569000e-01 -1.286217506058e-04 -7.049002371847e-04  3.645827789233e-04
O -4.190677910000e-02 -1.303286869000e-01  6.670699220000e-02 -7.659318883475e-05  1.288831494648e-04 -6.548829007062e-05
H -9.068798990000e-01  3.938007137000e-01 -2.039763805000e-01  1.189476949653e-03 -1.391022641912e-03  7.179786959632e-04
3
step 1747
H  8.709893191000e-01  3.465722185000e-01 -1.938562172000e-01 -4.547341971596e-04 -8.011900855681e-04  4.183765486402e-04
O -4.223599050000e-02 -1.297382226000e-01  6.640623770000e-02 -7.343168240202e-05  1.404790452989e-04 -7.170542876455e-05
H -9.010518413000e-01  3.875078208000e-01 -2.007306343000e-01  1.465368511811e-03 -1.478831846653e-03  7.622183387537e-04
3
step 1748
H  8.682904090000e-01  3.428602866000e-01 -1.919102421000e-01 -7.754704463494e-04 -8.929917458021e-04  4.697570436460e-04
O -4.254936250000e-02 -1.290993878000e-01  6.607951490000e-02 -6.931208831055e-05  1.508863593416e-04 -7.730164346287e-05
H -8.940568034000e-01  3.808598037000e-01 -1.973063869000e-01  1.720683742763e-03 -1.552267688691e-03  7.990150208865e-04
3
step 1749
H  8.642033595000e-01  3.387578575000e-01 -1.897454837000e-01 -1.087553299001e-03 -9.790199039817e-04  5.180139031935e-04
O -4.284252430000e-02 -1.284178515000e-01  6.572978920000e-02 -6.414662452120e-05  1.598807317812e-04 -8.215786343362e-05
H -8.859945421000e-01  3.739242910000e-01 -1.937386416000e-01  1.950750214468e-03 -1.609052456320e-03  8.271970276667e-04
3
step 1750
H  8.587734856000e-01  3.342931134000e-01 -1.873772241000e-01 -1.387408923590e-03 -1.057870568578e-03  5.623708020176e-04
O -4.311069450000e-02 -1.277003091000e-01  6.536057070000e-02 -5.783830294266e-05  1.672165292373e-04 -8.614363151180e-05
H -8.769862466000e-01  3.667793637000e-01 -1.900677801000e-01  2.150452753596e-03 -1.646691560796e-03  8.454803387907e-04
3
step 1751
H  8.520624700000e-01  3.295006807000e-01 -1.848243090000e-01 -1.671093610075e-03 -1.127983066905e-03  6.019645607324e-04
O -4.334865370000e-02 -1.269545789000e-01  6.497596650000e-02 -5.028844420289e-05  1.726261088254e-04 -8.911667899375e-05
H -8.671764354000e-01  3.595144800000e-01 -1.863400418000e-01  2.314279910609e-03 -1.662500062018e-03  8.524822362982e-04
3
step 1752
H  8.441501381000e-01  3.244223987000e-01 -1.821095737000e-01 -1.934231064524e-03 -1.187605314441e-03  6.358260389315e-04
O -4.355075690000e-02 -1.261896986000e-01  6.458073160000e-02 -4.140780353353e-05  1.758215322926e-04 -9.092378956155e-05
H -8.567345269000e-01  3.522312163000e-01 -1.826079084000e-01  2.436437696102e-03 -1.653664130583e-03  8.467528538148e-04
3
step 1753
H  8.351364684000e-01  3.191082257000e-01 -1.792603447000e-01 -2.171967576460e-03 -1.234764939639e-03  6.628643102851e-04
O -4.371100360000e-02 -1.254160060000e-01  6.418031380000e-02 -3.113215797843e-05  1.764996764281e-04 -9.140340934057e-05
H -8.458557415000e-01  3.450436537000e-01 -1.789303065000e-01  2.511051789407e-03 -1.617348604095e-03  8.268305408531e-04
3
step 1754
H  8.251437601000e-01  3.136172608000e-01 -1.763090038000e-01 -2.378956651066e-03 -1.267251205508e-03  6.818568393989e-04
O -4.382318710000e-02 -1.246451914000e-01  6.378088180000e-02 -1.944286231071e-05  1.743515716749e-04 -9.039057903963e-05
H -8.347609026000e-01  3.380781786000e-01 -1.753725086000e-01  2.532478153720e-03 -1.550861251662e-03  7.913265594082e-04
3
step 1755
H  8.143187776000e-01  3.080188081000e-01 -1.732935757000e-01 -2.549391696608e-03 -1.282616019809e-03  6.914502451767e-04
O -4.388114350000e-02 -1.238902964000e-01  6.338932700000e-02 -6.392035401932e-06  1.690769105760e-04 -8.772443958051e-05
H -8.236946202000e-01  3.314724313000e-01 -1.720055938000e-01  2.495735903399e-03 -1.451880680826e-03  7.390425639708e-04
3
step 1756
H  8.028346324000e-01  3.023933893000e-01 -1.702582852000e-01 -2.677104073011e-03 -1.278202193158e-03  6.901760114457e-04
O -4.387912230000e-02 -1.231656390000e-01  6.301322580000e-02  7.868701719069e-06  1.604042471508e-04 -8.325875460643e-05
H -8.129213041000e-01  3.253731119000e-01 -1.689053207000e-01  2.397061157252e-03 -1.318748449163e-03  6.691212077884e-04
3
step 1757
H  7.908920689000e-01  2.968335610000e-01 -1.672540076000e-01 -2.755749896089e-03 -1.251210372600e-03  6.764874162998e-04
O -4.381228640000e-02 -1.224866365000e-01  6.266074930000e-02  2.305930039532e-05  1.481166495096e-04 -7.687529902575e-05
H -8.027185012000e-01  3.199323734000e-01 -1.661502713000e-01  2.234554373935e-03 -1.150811758892e-03  5.812230142571e-04
3
step 1758
H  7.787197125000e-01  2.914443413000e-01 -1.643385028000e-01 -2.779109595362e-03 -1.198817248418e-03  6.488247652528e-04
O -4.367733580000e-02 -1.218695051000e-01  6.234050820000e-02  3.874766126433e-05  1.320816766607e-04 -6.849955592526e-05
H -7.933672438000e-01  3.153026286000e-01 -1.638191747000e-01  2.008854441588e-03 -9.487825477668e-04  4.757119698377e-04
3
step 1759
H  7.665727337000e-01  2.863429930000e-01 -1.615762945000e-01 -2.741520484229e-03 -1.118357380522e-03  6.057156887548e-04
O -4.347321470000e-02 -1.213308208000e-01  6.206132570000e-02  5.433965113090e-05  1.122827860505e-04 -5.811722712652e-05
H -7.851394879000e-01  3.116298003000e-01 -1.619874276000e-01  1.723730127833e-03 -7.150554864094e-04  3.538200810962e-04
3
step 1760
H  7.547293109000e-01  2.816578586000e-01 -1.590380271000e-01 -2.638449962424e-03 -1.007576949971e-03  5.459149333980e-04
O -4.320182230000e-02 -1.208869448000e-01  6.183193790000e-02  6.909193384533e-05  8.884802134081e-05 -4.578958727204e-05
H -7.782832864000e-01  3.090453460000e-01 -1.607229783000e-01  1.386448326436e-03 -4.539098029543e-04  2.177524809424e-04
3
step 1761
H  7.434842780000e-01  2.775259238000e-01 -1.567991212000e-01 -2.467191098626e-03 -8.649569764340e-04  4.685825269106e-04
O -4.286860740000e-02 -1.205533327000e-01  6.166063180000e-02  8.215555049299e-05  6.207092943693e-05 -3.166493425260e-05
H -7.730070044000e-01  3.076577422000e-01 -1.600819268000e-01  1.007777193034e-03 -1.715179680007e-04  7.069347153013e-05
3
step 1762
H  7.331395012000e-01  2.740888234000e-01 -1.549375715000e-01 -2.227621142424e-03 -6.900853176612e-04  3.734885145414e-04
O -4.248289840000e-02 -1.203437767000e-01  6.155484560000e-02  9.265265325653e-05  3.241884776320e-05 -1.598373161487e-05
H -7.694644650000e-01  3.075444326000e-01 -1.601043563000e-01  6.015263499043e-04  1.242931782148e-04 -8.331503768535e-05
3
step 1763
H  7.239908888000e-01  2.714871493000e-01 -1.535308109000e-01 -1.922913676910e-03 -4.840317132631e-04  2.612192358813e-04
O -4.205782580000e-02 -1.202696430000e-01  6.152076190000e-02  9.977989751877e-05  5.254123466008e-07  9.243763205678e-07
H -7.677431886000e-01  3.087454026000e-01 -1.608109971000e-01  1.836185008550e-04  4.245351415959e-04 -2.396266872414e-04
3
step 1764
H  7.163125354000e-01  2.698531756000e-01 -1.526517034000e-01 -1.560051821804e-03 -2.496560274749e-04  1.333465306403e-04
O -4.160974790000e-02 -1.203391789000e-01  6.156293450000e-02  1.029218033795e-04 -3.283354521866e-05  1.865229371931e-05
H -7.678576626000e-01  3.112594399000e-01 -1.622012732000e-01 -2.291954712885e-04  7.197475881583e-04 -3.933464537030e-04
3
step 1765
H  7.103392418000e-01  2.693024681000e-01 -1.523639268000e-01 -1.149973715595e-03  8.235055972819e-06 -7.486321437974e-06
O -4.115718130000e-02 -1.205569616000e-01  6.168398380000e-02  1.017499149858e-04 -6.677888808510e-05  3.673519265189e-05
H -7.697488243000e-01  3.150437447000e-01 -1.642530795000e-01 -6.207644895434e-04  1.000773179140e-03 -5.397313277721e-04
3
step 1766
H  7.062493856000e-01  2.699252386000e-01 -1.527172144000e-01 -7.072072446158e-04  2.829632181378e-04 -1.576062289367e-04
O -4.071935830000e-02 -1.209235453000e-01  6.188439560000e-02  9.628274957552e-05 -1.003782634867e-04  5.467656795849e-05
H -7.732898268000e-01  3.200169709000e-01 -1.669243352000e-01 -9.768528157455e-04  1.259479615298e-03 -6.745643113025e-04
3
step 1767
H  7.041506374000e-01  2.717786127000e-01 -1.537431018000e-01 -2.489542236939e-04  5.663254779571e-04 -3.125014080553e-04
O -4.031463360000e-02 -1.214353482000e-01  6.216244560000e-02  8.688969199474e-05 -1.327022258319e-04  7.197801293131e-05
H -7.782970338000e-01  3.260651549000e-01 -1.701560333000e-01 -1.286118680413e-03  1.489306021135e-03 -7.944380085034e-04
3
step 1768
H  7.040708457000e-01  2.748810198000e-01 -1.554518408000e-01  2.062917047228e-04  8.491962378933e-04 -4.671530198987e-04
O -3.995900700000e-02 -1.220847913000e-01  6.251425830000e-02  7.423690571209e-05 -1.628811688684e-04  8.817001433624e-05
H -7.845443492000e-01  3.330495380000e-01 -1.738762756000e-01 -1.540638726034e-03  1.685567050884e-03 -8.969131446513e-04
3
step 1769
H  7.059558476000e-01  2.792097295000e-01 -1.578310482000e-01  6.403750491915e-04  1.122295861306e-03 -6.164584431828e-04
O -3.966500380000e-02 -1.228606831000e-01  6.293400060000e-02  5.918833347498e-05 -1.901567954689e-04  1.028402287977e-04
H -7.917788013000e-01  3.408151561000e-01 -1.780047095000e-01 -1.735967713847e-03  1.845502936700e-03 -9.805458185643e-04
3
step 1770
H  7.096746173000e-01  2.847019672000e-01 -1.608463238000e-01  1.037048334301e-03  1.376983905952e-03 -7.556678623478e-04
O -3.944106380000e-02 -1.237488087000e-01  6.341418900000e-02  4.268655801211e-05 -2.139218353012e-04  1.156558671272e-04
H -7.997353948000e-01  3.491991006000e-01 -1.824568017000e-01 -1.870818730086e-03  1.968118826139e-03 -1.044805882310e-03
3
step 1771
H  7.150308139000e-01  2.912593921000e-01 -1.644437201000e-01  1.383200870947e-03  1.605933318755e-03 -8.807549094369e-04
O -3.929146380000e-02 -1.247326628000e-01  6.394607800000e-02  2.564031358313e-05 -2.337440381587e-04  1.263775399699e-04
H -8.081498965000e-01  3.580377015000e-01 -1.871475603000e-01 -1.946507650556e-03  2.053890183915e-03 -1.089925809276e-03
3
step 1772
H  7.217786832000e-01  2.987551123000e-01 -1.685536031000e-01  1.669564856884e-03  1.803576819628e-03 -9.886615158303e-04
O -3.921669140000e-02 -1.257942479000e-01  6.452008910000e-02  8.838815754873e-06 -2.493720705882e-04  1.348632345997e-04
H -8.167688260000e-01  3.671722110000e-01 -1.919944863000e-01 -1.966298244749e-03  2.104407979493e-03 -1.116717807305e-03
3
step 1773
H  7.296407837000e-01  3.070420691000e-01 -1.730952647000e-01  1.890861219969e-03  1.966283494039e-03 -1.077394452376e-03
O -3.921411740000e-02 -1.269148592000e-01  6.512623440000e-02 -7.097738270653e-06 -2.607245545620e-04  1.410629256762e-04
H -8.253565104000e-01  3.764528813000e-01 -1.969196955000e-01 -1.934760357674e-03  2.122026119062e-03 -1.126391489493e-03
3
step 1774
H  7.383251654000e-01  3.159615972000e-01 -1.779816288000e-01  2.045474156336e-03  2.092288810554e-03 -1.145986736194e-03
O -3.927880210000e-02 -1.280757872000e-01  6.575449760000e-02 -2.173269638615e-05 -2.678662569887e-04  1.450060734809e-04
H -8.336994593000e-01  3.857415630000e-01 -2.018512736000e-01 -1.857211700380e-03  2.109551479488e-03 -1.120393179666e-03
3
step 1775
H  7.475402475000e-01  3.253511969000e-01 -1.831235254000e-01  2.134816324186e-03  2.181445920298e-03 -1.194361148892e-03
O -3.940429520000e-02 -1.292588938000e-01  6.639514850000e-02 -3.480078350008e-05 -2.709769381510e-04  1.467850036555e-04
H -8.416085337000e-01  3.949130707000e-01 -2.067239930000e-01 -1.739275090954e-03  2.069995605461e-03 -1.100277013939e-03
3
step 1776
H  7.570064415000e-01  3.350509180000e-01 -1.884332026000e-01  2.162559027662e-03  2.234881746455e-03 -1.223141050824e-03
O -3.958333550000e-02 -1.304470427000e-01  6.703897870000e-02 -4.617994399857e-05 -2.703182894539e-04  1.465371487551e-04
H -8.489194470000e-01  4.038556082000e-01 -2.114795393000e-01 -1.586555013085e-03  2.006391598639e-03 -1.067609840459e-03
3
step 1777
H  7.664642935000e-01  3.449081220000e-01 -1.938269454000e-01  2.133870678868e-03  2.254631873328e-03 -1.233449287815e-03
O -3.980840500000e-02 -1.316243856000e-01  6.767746070000e-02 -5.585716416234e-05 -2.662032206810e-04  1.444285285496e-04
H -8.554921038000e-01  4.124705322000e-01 -2.160663958000e-01 -1.404421493249e-03  1.921670434755e-03 -1.023907106153e-03
3
step 1778
H  7.756794425000e-01  3.547806718000e-01 -1.992268276000e-01  2.054754826030e-03  2.243305805331e-03 -1.226723709005e-03
O -4.007212850000e-02 -1.327765245000e-01  6.830283880000e-02 -6.389488424625e-05 -2.589701296734e-04  1.406397672463e-04
H -8.612092095000e-01  4.206716947000e-01 -2.204395098000e-01 -1.197882363302e-03  1.818586720960e-03 -9.705942772428e-04
3
step 1779
H  7.844449702000e-01  3.645387641000e-01 -2.045617164000e-01  1.931528621953e-03  2.203809551233e-03 -1.204564416775e-03
O -4.036753410000e-02 -1.338905724000e-01  6.890816620000e-02 -7.040199072987e-05 -2.489630457797e-04  1.353552052988e-04
H -8.659744910000e-01  4.283845573000e-01 -2.245598383000e-01 -9.715236268428e-04  1.699682845250e-03 -9.089880340334e-04
3
step 1780
H  7.925817956000e-01  3.740656914000e-01 -2.097676878000e-01  1.770446358656e-03  2.139133962676e-03 -1.168617530056e-03
O -4.068819970000e-02 -1.349551416000e-01  6.948730050000e-02 -7.551074633460e-05 -2.365175648000e-04  1.287551469424e-04
H -8.697107845000e-01  4.355452199000e-01 -2.283938505000e-01 -7.294992201017e-04  1.567281255989e-03 -8.402919741465e-04
3
step 1781
H  7.999377303000e-01  3.832578228000e-01 -2.147880138000e-01  1.577452864926e-03  2.052206166584e-03 -1.120493778870e-03
O -4.102831090000e-02 -1.359602820000e-01  7.003487230000e-02 -7.935965780733e-05 -2.219520771818e-04  1.210109006273e-04
H -8.723581673000e-01  4.420994673000e-01 -2.319130359000e-01 -4.755551469780e-04  1.423496611713e-03 -7.656026462774e-04
3
step 1782
H  8.063857150000e-01  3.920240654000e-01 -2.195728656000e-01  1.358042480941e-03  1.945795493395e-03 -1.061716947701e-03
O -4.138265750000e-02 -1.368973921000e-01  7.054623840000e-02 -8.208176951541e-05 -2.055632381301e-04  1.122821963878e-04
H -8.738722558000e-01  4.480019043000e-01 -2.350934594000e-01 -2.130738911549e-04  1.270259847592e-03 -6.859219513969e-04
3
step 1783
H  8.118216410000e-01  4.002850220000e-01 -2.240788494000e-01  1.117198665833e-03  1.822462688353e-03 -9.936959327919e-04
O -4.174658920000e-02 -1.377591176000e-01  7.101742740000e-02 -8.379714867512e-05 -1.876247837110e-04  1.027164361928e-04
H -8.742227268000e-01  4.532152128000e-01 -2.379153778000e-01  5.486755925928e-05  1.109350707443e-03 -6.021739869928e-04
3
step 1784
H  8.161620581000e-01  4.079720081000e-01 -2.282684652000e-01  8.593912230723e-04  1.684541627399e-03 -9.177146584548e-04
O -4.211594660000e-02 -1.385392525000e-01  7.144508580000e-02 -8.460864343685e-05 -1.683888153106e-04  9.244929275152e-05
H -8.733921227000e-01  4.577095717000e-01 -2.403629425000e-01  3.254327619816e-04  9.424351530332e-04 -5.152245013689e-04
3
step 1785
H  8.193419717000e-01  4.150260500000e-01 -2.321095548000e-01  5.886118767878e-04  1.534144272158e-03 -8.349348973964e-04
O -4.248697960000e-02 -1.392326486000e-01  7.182642940000e-02 -8.459992191370e-05 -1.480886656706e-04  8.160624080727e-05
H -8.713749412000e-01  4.614622414000e-01 -2.424239863000e-01  5.959586675684e-04  7.711047983429e-04 -4.259013581416e-04
3
step 1786
H  8.213128623000e-01  4.213969442000e-01 -2.355747843000e-01  3.084331694736e-04  1.373181221295e-03 -7.464077257166e-04
O -4.285626060000e-02 -1.398351416000e-01  7.215920280000e-02 -8.383496936829e-05 -1.269428345437e-04  7.030461867211e-05
H -8.681770285000e-01  4.644573286000e-01 -2.440899052000e-01  8.638888869646e-04  5.969174545946e-04 -3.350156223956e-04
3
step 1787
H  8.220409979000e-01  4.270424362000e-01 -2.386411934000e-01  2.208023628492e-05  1.203392601518e-03 -6.530906139852e-04
O -4.322059970000e-02 -1.403434955000e-01  7.244164870000e-02 -8.235860016803e-05 -1.051595414385e-04  5.865612400840e-05
H -8.638152525000e-01  4.666857258000e-01 -2.453556294000e-01  1.126709431979e-03  4.214379403978e-04 -2.433828342535e-04
3
step 1788
H  8.215060813000e-01  4.319275502000e-01 -2.412898269000e-01 -2.674954185556e-04  1.026380745872e-03 -5.558654599511e-04
O -4.357696140000e-02 -1.407553681000e-01  7.267248880000e-02 -8.019699259547e-05 -8.294139264050e-05  4.676926390031e-05
H -8.583174589000e-01  4.681452331000e-01 -2.462196912000e-01  1.381883710683e-03  2.462790290265e-04 -1.518443098695e-04
3
step 1789
H  8.197002083000e-01  4.360240530000e-01 -2.435054414000e-01 -5.575340957692e-04  8.436527454423e-04 -4.555619784973e-04
O -4.392238470000e-02 -1.410692962000e-01  7.285091550000e-02 -7.735911958034e-05 -6.049067903375e-05  3.475222546000e-05
H -8.517227128000e-01  4.688408557000e-01 -2.466843832000e-01  1.626793369154e-03  7.314346988742e-05 -6.128913722104e-05
3
step 1790
H  8.166272314000e-01  4.393101571000e-01 -2.452763427000e-01 -8.453889182125e-04  6.566635313036e-04 -3.529814161387e-04
O -4.425391290000e-02 -1.412847078000e-01  7.297659730000e-02 -7.383817943163e-05 -3.801471963435e-05  2.271572814964e-05
H -8.440817724000e-01  4.687852944000e-01 -2.467560180000e-01  1.858682232376e-03 -9.613461624176e-05  2.732413893030e-05
3
step 1791
H  8.123024085000e-01  4.417703613000e-01 -2.465942989000e-01 -1.128452840688e-03  4.668562138497e-04 -2.489186793731e-04
O -4.456852530000e-02 -1.414019540000e-01  7.304969550000e-02 -6.961289400978e-05 -1.573075716211e-05  1.077563840995e-05
H -8.354578213000e-01  4.679996043000e-01 -2.464452761000e-01  2.074604235651e-03 -2.595515919765e-04  1.129475187871e-04
3
step 1792
H  8.067524057000e-01  4.433955062000e-01 -2.474545716000e-01 -1.404082272623e-03  2.757091598206e-04 -1.441881609946e-04
O -4.486307900000e-02 -1.414223640000e-01  7.307089240000e-02 -6.464963425514e-05  6.128785276191e-06 -9.442008729343e-07
H -8.259273981000e-01  4.665140194000e-01 -2.457676408000e-01  2.271381425984e-03 -4.148986675838e-04  1.944247697297e-04
3
step 1793
H  8.000156145000e-01  4.441830273000e-01 -2.478560556000e-01 -1.669525550606e-03  8.478267164937e-05 -3.964934242638e-05
O -4.513425900000e-02 -1.413483225000e-01  7.304143300000e-02 -5.890494796691e-05  2.731156860080e-05 -1.230939687812e-05
H -8.155814961000e-01  4.643689235000e-01 -2.447439106000e-01  2.445573103068e-03 -5.597331035003e-04  2.704762093605e-04
3
step 1794
H  7.921427799000e-01  4.441374194000e-01 -2.478015337000e-01 -1.921853586741e-03 -1.042320933866e-04  6.376639262370e-05
O -4.537854230000e-02 -1.411833669000e-01  7.296317580000e-02 -5.232916634500e-05  4.754114155451e-05 -2.317267105426e-05
H -8.045267625000e-01  4.616159265000e-01 -2.434007670000e-01  2.593464158588e-03 -6.913615260767e-04  3.396897965692e-04
3
step 1795
H  7.831979253000e-01  4.432709168000e-01 -2.472980509000e-01 -2.157894745195e-03 -2.894631801033e-04  1.650284188392e-04
O -4.559217930000e-02 -1.409323011000e-01  7.283865440000e-02 -4.487142297975e-05  6.651388268426e-05 -3.337213584160e-05
H -7.928867006000e-01  4.583189812000e-01 -2.417713650000e-01  2.711080087481e-03 -8.068416599975e-04  4.005218628968e-04
3
step 1796
H  7.732595500000e-01  4.416043951000e-01 -2.463574088000e-01 -2.374176250752e-03 -4.688079791983e-04  2.629795711103e-04
O -4.577120160000e-02 -1.406013195000e-01  7.267114410000e-02 -3.648662009996e-05  8.389765188768e-05 -4.273043988961e-05
H -7.808027376000e-01  4.545554447000e-01 -2.398958943000e-01  2.794238380014e-03 -9.030111440478e-04  4.513120369455e-04
3
step 1797
H  7.624220667000e-01  4.391684883000e-01 -2.449967784000e-01 -2.566876097013e-03 -6.398857571154e-04  3.563102039452e-04
O -4.591146510000e-02 -1.401981325000e-01  7.246473040000e-02 -2.714478089807e-05  9.933294688335e-05 -5.105523430192e-05
H -7.684349770000e-01  4.504169428000e-01 -2.378220395000e-01  2.838647502843e-03 -9.765533539288e-04  4.903174265327e-04
3
step 1798
H  7.507974203000e-01  4.360049052000e-01 -2.432394219000e-01 -2.731791935982e-03 -7.999968733245e-04  4.435359122749e-04
O -4.600873920000e-02 -1.397320802000e-01  7.222437170000e-02 -1.684308962027e-05  1.124375519472e-04 -5.814162727882e-05
H -7.559624003000e-01  4.460098557000e-01 -2.356052417000e-01  2.840065404013e-03 -1.024111033466e-03  5.157719963562e-04
3
step 1799
H  7.385167973000e-01  4.321679036000e-01 -2.411154999000e-01 -2.864336529882e-03 -9.460952398728e-04  5.229825750464e-04
O -4.605885510000e-02 -1.392142179000e-01  7.195594660000e-02 -5.620742839434e-06  1.228156891124e-04 -6.377696998458e-05
H -7.435822319000e-01  4.414551878000e-01 -2.333086399000e-01  2.794528142108e-03 -1.042457749332e-03  5.259764847043e-04
3
step 1800
H  7.257322844000e-01  4.277258480000e-01 -2.386629242000e-01 -2.959572714963e-03 -1.074783412100e-03  5.927839508621e-04
O -4.605792500000e-02 -1.386573490000e-01  7.166627440000e-02  6.424087456622e-06  1.300726363199e-04 -6.774864100962e-05
H -7.315081411000e-01  4.368875529000e-01 -2.310025451000e-01  2.698653471138e-03 -1.028733472734e-03  5.194223286201e-04
3
step 1801
H  7.126182718000e-01  4.227627265000e-01 -2.359281868000e-01 -3.012304045002e-03 -1.182343049973e-03  6.508987964826e-04
O -4.600263940000e-02 -1.380759828000e-01  7.136309420000e-02  1.911641771034e-05  1.338355575968e-04 -6.985512197358e-05
H -7.199669494000e-01  4.324529829000e-01 -2.287632971000e-01  2.550014901548e-03 -9.807436389823e-04  4.949490992794e-04
3
step 1802
H  6.993723194000e-01  4.173794418000e-01 -2.329670618000e-01 -3.017237213673e-03 -1.264815048226e-03  6.951551692389e-04
O -4.589064170000e-02 -1.374861855000e-01  7.105498860000e-02  3.218807022681e-05  1.337806046873e-04 -6.992030941681e-05
H -7.091935598000e-01  4.283052957000e-01 -2.266713618000e-01  2.347566773907e-03 -8.973079169917e-04  4.519280470850e-04
3
step 1803
H  6.862151378000e-01  4.116946272000e-01 -2.298450472000e-01 -2.969232711490e-03 -1.318145493882e-03  7.233306257347e-04
O -4.572096920000e-02 -1.369053002000e-01  7.075123800000e-02  4.526614046786e-05  1.296652205135e-04 -6.781060130645e-05
H -6.994239441000e-01  4.246008521000e-01 -2.248085810000e-01  2.092080952156e-03 -7.786260470127e-04  3.904546516888e-04
3
step 1804
H  6.733892616000e-01  4.058446602000e-01 -2.266373655000e-01 -2.863658097771e-03 -1.338413358345e-03  7.332770246487e-04
O -4.549452840000e-02 -1.363515156000e-01  7.046159400000e-02  5.787113207227e-05  1.213632401064e-04 -6.345367482313e-05
H -6.908862509000e-01  4.214917221000e-01 -2.232545849000e-01  1.786532133920e-03 -6.266065935996e-04  3.115218822710e-04
3
step 1805
H  6.611559386000e-01  3.999824863000e-01 -2.234283123000e-01 -2.696849583145e-03 -1.322150035176e-03  7.230958256929e-04
O -4.521455250000e-02 -1.358432790000e-01  7.019596980000e-02  6.943013056102e-05  1.088988762063e-04 -5.685682075797e-05
H -6.837904212000e-01  4.191175651000e-01 -2.220825262000e-01  1.436351387192e-03 -4.450877125942e-04  2.171367999170e-04
3
step 1806
H  6.497897645000e-01  3.942748359000e-01 -2.203097238000e-01 -2.466670216169e-03 -1.266748991133e-03  6.913629385246e-04
O -4.488696160000e-02 -1.353985671000e-01  6.996405330000e-02  7.930933535010e-05  9.247486308722e-05 -4.812243930052e-05
H -6.783170774000e-01  4.175968641000e-01 -2.213544718000e-01  1.049465630316e-03 -2.398761831412e-04  1.103418129012e-04
3
step 1807
H  6.395706871000e-01  3.888974635000e-01 -2.173783576000e-01 -2.173124311893e-03 -1.170941953107e-03  6.373899890456e-04
O -4.452053510000e-02 -1.350340532000e-01  6.977486170000e-02  8.686752250454e-05  7.248972133325e-05 -3.745783575373e-05
H -6.746067940000e-01  4.170184649000e-01 -2.211169509000e-01  6.360612000846e-04 -1.854901589220e-05 -4.888971392861e-06
3
step 1808
H  6.307732642000e-01  3.840281980000e-01 -2.147320737000e-01 -1.818950099474e-03 -1.035286435780e-03  5.614917703037e-04
O -4.412680440000e-02 -1.347642266000e-01  6.963626860000e-02  9.152655743033e-05  4.953983765686e-05 -2.517703523245e-05
H -6.727510553000e-01  4.174345461000e-01 -2.213972540000e-01  2.080547277168e-04  2.099969898962e-04 -1.238860640963e-04
3
step 1809
H  6.236534821000e-01  3.798379151000e-01 -2.124648751000e-01 -1.410076559944e-03 -8.625764394319e-04  4.652113108137e-04
O -4.371960770000e-02 -1.346005417000e-01  6.955454330000e-02  9.284905665555e-05  2.440362171254e-05 -1.169298448806e-05
H -6.727861560000e-01  4.188560993000e-01 -2.222010488000e-01 -2.216830127073e-04  4.362052663684e-04 -2.416316502244e-04
3
step 1810
H  6.184340156000e-01  3.764799943000e-01 -2.106611189000e-01 -9.558127719405e-04 -6.580671982891e-04  3.514430500734e-04
O -4.331430410000e-02 -1.345506763000e-01  6.953394600000e-02  9.060817372866e-05 -1.992936605926e-06  2.500311672462e-06
H -6.746909512000e-01  4.212516759000e-01 -2.235117158000e-01 -6.402447748677e-04  6.506322186478e-04 -3.531663416841e-04
3
step 1811
H  6.152893891000e-01  3.740793237000e-01 -2.093894795000e-01 -4.686494147766e-04 -4.294087589026e-04  2.243965583072e-04
O -4.292671690000e-02 -1.346179814000e-01  6.957642290000e-02  8.483293925425e-05 -2.862797007346e-05  1.685499715057e-05
H -6.783887876000e-01  4.245496289000e-01 -2.252915245000e-01 -1.035603413779e-03  8.447039038207e-04 -4.539877389971e-04
3
step 1812
H  6.143329746000e-01  3.727223392000e-01 -2.086974773000e-01  3.638258348206e-05 -1.862318220752e-04  8.936978600635e-05
O -4.257195100000e-02 -1.348011929000e-01  6.968144020000e-02  7.581663044695e-05 -5.444836848241e-05  3.080388039547e-05
H -6.837532734000e-01  4.286434813000e-01 -2.274844558000e-01 -1.397385317595e-03  1.011330774900e-03 -5.403741332831e-04
3
step 1813
H  6.156077646000e-01  3.724496528000e-01 -2.086074255000e-01  5.427611657172e-04  6.059787880366e-05 -4.765959976861e-05
O -4.226326330000e-02 -1.350944463000e-01  6.984598050000e-02  6.408423911869e-05 -7.844123296640e-05  4.379891789645e-05
H -6.906169782000e-01  4.333995469000e-01 -2.300202116000e-01 -1.717403800971e-03  1.145298608931e-03 -6.095903625464e-04
3
step 1814
H  6.190825501000e-01  3.732526169000e-01 -2.091145352000e-01  1.033788468468e-03  2.999501123275e-04 -1.805665025618e-04
O -4.201116480000e-02 -1.354876137000e-01  7.006471420000e-02  5.032506271546e-05 -9.970348819958e-05  5.534910344147e-05
H -6.987818706000e-01  4.386657203000e-01 -2.328188379000e-01 -1.989905506377e-03  1.243403608322e-03 -6.599588088973e-04
3
step 1815
H  6.246542046000e-01  3.750744457000e-01 -2.101875206000e-01  1.493940340508e-03  5.214436787418e-04 -3.036347455924e-04
O -4.182288050000e-02 -1.359669281000e-01  7.033032750000e-02  3.530622959241e-05 -1.174998247590e-04  6.505235104384e-05
H -7.080301738000e-01  4.442802798000e-01 -2.357953561000e-01 -2.211547704367e-03  1.304358073091e-03 -6.908097206091e-04
3
step 1816
H  6.321556710000e-01  3.778156481000e-01 -2.117715716000e-01  1.910019261468e-03  7.163174240727e-04 -4.120356401966e-04
O -4.170220830000e-02 -1.365158270000e-01  7.063397200000e-02  1.978569862073e-05 -1.313013288899e-04  7.261709305372e-05
H -7.181346049000e-01  4.500798514000e-01 -2.388639514000e-01 -2.381170011828e-03  1.328531977746e-03 -7.023451417308e-04
3
step 1817
H  6.413683343000e-01  3.813427712000e-01 -2.137931476000e-01  2.271931787006e-03  8.780137273962e-04 -5.021491691742e-04
O -4.164974050000e-02 -1.371159152000e-01  7.096578260000e-02  4.440567170243e-06 -1.407999772384e-04  7.787090111874e-05
H -7.288672331000e-01  4.559059510000e-01 -2.419414134000e-01 -2.499432736740e-03  1.317599914156e-03 -6.954529672011e-04
3
step 1818
H  6.520368123000e-01  3.854989399000e-01 -2.161657610000e-01  2.573009297903e-03  1.002410110302e-03 -5.716924007034e-04
O -4.166334990000e-02 -1.377479346000e-01  7.131540200000e-02 -1.017901400401e-05 -1.458996090694e-04  8.075623512700e-05
H -7.400065536000e-01  4.616098586000e-01 -2.449496970000e-01 -2.568402793242e-03  1.274167391652e-03 -6.715102149070e-04
3
step 1819
H  6.638841342000e-01  3.901146266000e-01 -2.187958935000e-01  2.809907766542e-03  1.087727958015e-03 -6.196708297383e-04
O -4.173881470000e-02 -1.383926484000e-01  7.167246140000e-02 -2.366906193833e-05 -1.466884041016e-04  8.131600789789e-05
H -7.513427225000e-01  4.670558904000e-01 -2.478176415000e-01 -2.591146390955e-03  1.201425468370e-03 -6.322013501397e-04
3
step 1820
H  6.766256550000e-01  3.950173917000e-01 -2.215883548000e-01  2.982194170212e-03  1.134205901101e-03 -6.462002770091e-04
O -4.187047230000e-02 -1.390315703000e-01  7.202697930000e-02 -3.576870344200e-05 -1.434000196196e-04  7.967283271079e-05
H -7.626810669000e-01  4.721232506000e-01 -2.504819424000e-01 -2.571364536569e-03  1.102859421291e-03 -5.793647493048e-04
3
step 1821
H  6.899806147000e-01  4.000397959000e-01 -2.244506403000e-01  3.091754835413e-03  1.143646625372e-03 -6.522586775822e-04
O -4.205181820000e-02 -1.396475083000e-01  7.236965970000e-02 -4.634195497610e-05 -1.363711713255e-04  7.600604474277e-05
H -7.738441294000e-01  4.767067541000e-01 -2.528875263000e-01 -2.513092657822e-03  9.820244687080e-04 -5.148744474043e-04
3
step 1822
H  7.036808751000e-01  4.050251746000e-01 -2.272961172000e-01  3.142154232200e-03  1.118937114976e-03 -6.394227575974e-04
O -4.227599990000e-02 -1.402249224000e-01  7.269209030000e-02 -5.535210660746e-05 -1.260017054022e-04  7.052990183175e-05
H -7.846725503000e-01  4.807167160000e-01 -2.549874877000e-01 -2.420469761963e-03  8.423865932905e-04 -4.405562322300e-04
3
step 1823
H  7.174768682000e-01  4.098313517000e-01 -2.300460786000e-01  3.138037572709e-03  1.063612023149e-03 -6.096281009611e-04
O -4.253619150000e-02 -1.407501196000e-01  7.298685030000e-02 -6.283464323350e-05 -1.127208094665e-04  6.347503067018e-05
H -7.950250916000e-01  4.840782813000e-01 -2.567427304000e-01 -2.297573828439e-03  6.872204390073e-04 -3.581340856181e-04
3
step 1824
H  7.311411047000e-01  4.143325936000e-01 -2.326308295000e-01  3.084629707537e-03  9.814970222535e-04 -5.649731481973e-04
O -4.282585110000e-02 -1.412113157000e-01  7.324754540000e-02 -6.887245589240e-05 -9.696099427360e-05  5.507413319762e-05
H -8.047780790000e-01  4.867304206000e-01 -2.581214350000e-01 -2.148315404474e-03  5.195539788237e-04 -2.692013402565e-04
3
step 1825
H  7.444697380000e-01  4.184202016000e-01 -2.349900259000e-01  2.987348000733e-03  8.764425824826e-04 -5.075728366734e-04
O -4.313887820000e-02 -1.415986025000e-01  7.346879110000e-02 -7.357505272367e-05 -7.913983702723e-05  4.555195319229e-05
H -8.138244950000e-01  4.886247761000e-01 -2.590984481000e-01 -1.976378561097e-03  3.421489187002e-04 -1.752106919868e-04
3
step 1826
H  7.572826851000e-01  4.220021367000e-01 -2.370724802000e-01  2.851524987194e-03  7.521422826048e-04 -4.394584813540e-04
O -4.346968910000e-02 -1.419038498000e-01  7.364615990000e-02 -7.706231353139e-05 -5.964860865967e-05  3.511911909517e-05
H -8.220729034000e-01  4.897244854000e-01 -2.596546626000e-01 -1.785198133986e-03  1.575063565262e-04 -7.747738124020e-05
3
step 1827
H  7.694227632000e-01  4.250020220000e-01 -2.388356238000e-01  2.682227186217e-03  6.120228401499e-04 -3.625167241390e-04
O -4.381323230000e-02 -1.421205734000e-01  7.377611020000e-02 -7.945266910352e-05 -3.884657832986e-05  2.396909513368e-05
H -8.294463444000e-01  4.900030772000e-01 -2.597764345000e-01 -1.577964413342e-03 -3.211025303071e-05  2.280857031776e-05
3
step 1828
H  7.807542251000e-01  4.273578047000e-01 -2.402447789000e-01  2.484153066995e-03  4.591901549841e-04 -2.784592507967e-04
O -4.416496070000e-02 -1.422437871000e-01  7.385590780000e-02 -8.085512019533e-05 -1.705966496985e-05  1.227748195430e-05
H -8.358812993000e-01  4.894434961000e-01 -2.594550702000e-01 -1.357647265211e-03 -2.246414466098e-04  1.245645144907e-04
3
step 1829
H  7.911610030000e-01  4.290202871000e-01 -2.412723553000e-01  2.261592064768e-03  2.964163687268e-04 -1.888152076270e-04
O -4.452077650000e-02 -1.422698585000e-01  7.388354760000e-02 -8.136433281549e-05  5.417876005546e-06  2.029811096112e-07
H -8.413267967000e-01  4.880372927000e-01 -2.586863997000e-01 -1.127033618491e-03 -4.181921533341e-04  2.267942640938e-04
3
step 1830
H  8.005448859000e-01  4.299516747000e-01 -2.418970564000e-01  2.018427040042e-03  1.261546931686e-04 -9.493901792104e-05
O -4.487696090000e-02 -1.421963766000e-01  7.385768400000e-02 -8.105790017967e-05  2.831970902608e-05 -1.211067139642e-05
H -8.457437057000e-01  4.857839949000e-01 -2.574704468000e-01 -8.887737694555e-04 -6.109893305142e-04  3.285657406229e-04
3
step 1831
H  8.088237838000e-01  4.301242372000e-01 -2.421031443000e-01  1.758165617558e-03 -4.942876165443e-05  1.972284697327e-06
O -4.523009510000e-02 -1.420220394000e-01  7.377757000000e-02 -7.999508567765e-05  5.140265078291e-05 -2.453216361641e-05
H -8.491042471000e-01  4.826906686000e-01 -2.558111981000e-01 -6.454335417624e-04 -8.013388999852e-04  4.289883110928e-04
3
step 1832
H  8.159301801000e-01  4.295191352000e-01 -2.418797974000e-01  1.483989681395e-03 -2.284136470754e-04  1.008564296785e-04
O -4.557697910000e-02 -1.417465641000e-01  7.364300880000e-02 -7.821646176199e-05  7.444131755375e-05 -3.693979190573e-05
H -8.513917429000e-01  4.787716664000e-01 -2.537164709000e-01 -3.995502221373e-04 -9.875832283954e-04  5.271904311350e-04
3
step 1833
H  8.218098289000e-01  4.281254430000e-01 -2.412205734000e-01  1.198815854255e-03 -4.090797843543e-04  2.007609105902e-04
O -4.591454900000e-02 -1.413706209000e-01  7.345431850000e-02 -7.574402879483e-05  9.722264453923e-05 -4.921854917709e-05
H -8.526006172000e-01  4.740485598000e-01 -2.511978785000e-01 -1.536910923972e-04 -1.168059965092e-03  6.222979737498e-04
3
step 1834
H  8.264207360000e-01  4.259393742000e-01 -2.401229858000e-01  9.053621019218e-04 -5.898603710550e-04  3.008172730792e-04
O -4.623979730000e-02 -1.408957916000e-01  7.321230880000e-02 -7.258166300867e-05  1.195404646226e-04 -6.125724972339e-05
H -8.527366576000e-01  4.685502481000e-01 -2.482708875000e-01  8.948711974734e-05 -1.341063147234e-03  7.134138288039e-04
3
step 1835
H  8.297324399000e-01  4.229637135000e-01 -2.385881921000e-01  6.062184516532e-04 -7.692942549324e-04  4.002147903169e-04
O -4.654969410000e-02 -1.403245504000e-01  7.291827070000e-02 -6.871566960092e-05  1.411900779873e-04 -7.294558090402e-05
H -8.518175365000e-01  4.623132313000e-01 -2.449549617000e-01  3.271762712532e-04 -1.504804218060e-03  7.995973836822e-04
3
step 1836
H  8.317256112000e-01  4.192074609000e-01 -2.366208002000e-01  3.039221901741e-04 -9.459797939668e-04  4.981749612281e-04
O -4.684111190000e-02 -1.396602704000e-01  7.257397920000e-02 -6.411587520975e-05  1.619633611163e-04 -8.417150222946e-05
H -8.498736149000e-01  4.553820599000e-01 -2.412737987000e-01  5.563597435908e-04 -1.657380733624e-03  8.798481132935e-04
3
step 1837
H  8.323919916000e-01  4.146856666000e-01 -2.342287801000e-01  1.034826092030e-06 -1.118530051139e-03  5.939267126597e-04
O -4.711075710000e-02 -1.389072471000e-01  7.218170570000e-02 -5.873719577708e-05  1.816443146097e-04 -9.481879528977e-05
H -8.469489631000e-01  4.478098819000e-01 -2.372556175000e-01  7.737601730289e-04 -1.796751130714e-03  9.530922829477e-04
3
step 1838
H  8.317346667000e-01  4.094194672000e-01 -2.314234871000e-01 -2.997791924146e-04 -1.285527294406e-03  6.866811307328e-04
O -4.735510730000e-02 -1.380707436000e-01  7.174424220000e-02 -5.252158380681e-05  2.000048304119e-04 -1.047647782401e-04
H -8.431026214000e-01  4.396591129000e-01 -2.329335120000e-01  9.757922821869e-04 -1.920713576703e-03  1.018171808758e-03
3
step 1839
H  8.297686943000e-01  4.034363192000e-01 -2.282197948000e-01 -5.956699019593e-04 -1.445478218907e-03  7.756066035874e-04
O -4.757036110000e-02 -1.371570518000e-01  7.126493370000e-02 -4.540133778982e-05  2.168014052420e-04 -1.138784591052e-04
H -8.384100341000e-01  4.310021686000e-01 -2.283458353000e-01  1.158533186631e-03 -2.026899693526e-03  1.073840993928e-03
3
step 1840
H  8.265220994000e-01  3.967704269000e-01 -2.246363360000e-01 -8.835169033722e-04 -1.596769521129e-03  8.598040006956e-04
O -4.775240380000e-02 -1.361735654000e-01  7.074771850000e-02 -3.730407548338e-05  2.317730150654e-04 -1.220193335984e-04
H -8.329645697000e-01  4.219221899000e-01 -2.235365818000e-01  1.317716863930e-03 -2.112785989824e-03  1.118772704208e-03
3
step 1841
H  8.220372455000e-01  3.894633643000e-01 -2.206958520000e-01 -1.159843147524e-03 -1.737624131305e-03  9.382822041438e-04
O -4.789680030000e-02 -1.351288606000e-01  7.019717120000e-02 -2.816010698079e-05  2.446405619991e-04 -1.290369965847e-04
H -8.268790034000e-01  4.125136748000e-01 -2.185557182000e-01  1.448764377298e-03 -2.175729446400e-03  1.151577342240e-03
3
step 1842
H  8.163725845000e-01  3.815648864000e-01 -2.164256488000e-01 -1.420730092459e-03 -1.866059383931e-03  1.009934572405e-03
O -4.799882620000e-02 -1.340327734000e-01  6.961854610000e-02 -1.791281551800e-05  2.551085838768e-04 -1.347718825870e-04
H -8.202867731000e-01  4.028828927000e-01 -2.134593990000e-01  1.546863521201e-03 -2.213034682925e-03  1.170838414731e-03
3
step 1843
H  8.096047702000e-01  3.731339171000e-01 -2.118581519000e-01 -1.661739977619e-03 -1.979850138705e-03  1.073518069020e-03
O -4.805355110000e-02 -1.328964653000e-01  6.901781410000e-02 -6.532772810926e-06  2.628697567119e-04 -1.390575421586e-04
H -8.133427641000e-01  3.931479283000e-01 -2.083099863000e-01  1.607113361864e-03 -2.222060316631e-03  1.175168527559e-03
3
step 1844
H  8.018310884000e-01  3.642396830000e-01 -2.070315444000e-01 -1.877854032673e-03 -2.076501176079e-03  1.127637510833e-03
O -4.805599300000e-02 -1.317324619000e-01  6.840168620000e-02  5.964209951450e-06  2.676129259957e-04 -1.417247923778e-04
H -8.062233016000e-01  3.834381649000e-01 -2.031757753000e-01  1.624747788009e-03 -2.200370391363e-03  1.163288729690e-03
3
step 1845
H  7.931721108000e-01  3.549629432000e-01 -2.019904609000e-01 -2.063440270052e-03 -2.153235650846e-03  1.170738944571e-03
O -4.800135970000e-02 -1.305546475000e-01  6.777761380000e-02  1.949522344683e-05  2.690350325118e-04 -1.426079745858e-04
H -7.991249780000e-01  3.738930039000e-01 -1.981303199000e-01  1.595449174858e-03 -2.145933802422e-03  1.134133180603e-03
3
step 1846
H  7.837744073000e-01  3.453972237000e-01 -1.967866830000e-01 -2.212270082349e-03 -2.207009413170e-03  1.201117541008e-03
O -4.788539480000e-02 -1.293781995000e-01  6.715375730000e-02  3.388577778877e-05  2.668573989119e-04 -1.415537124789e-04
H -7.922619007000e-01  3.646596024000e-01 -1.932512423000e-01  1.515754629760e-03 -2.057368773481e-03  1.086977742467e-03
3
step 1847
H  7.738130551000e-01  3.356499223000e-01 -1.914797635000e-01 -2.317607610511e-03 -2.234562949186e-03  1.216946333027e-03
O -4.770483330000e-02 -1.282194411000e-01  6.653891050000e-02  4.884506868928e-05  2.608462764908e-04 -1.384319374294e-04
H -7.858609653000e-01  3.558894532000e-01 -1.886184331000e-01  1.383540018437e-03 -1.934217986810e-03  1.021584886338e-03
3
step 1848
H  7.634935677000e-01  3.258430883000e-01 -1.861374716000e-01 -2.372401439074e-03 -2.232525335343e-03  1.216333687165e-03
O -4.745796310000e-02 -1.270955950000e-01  6.594237200000e-02  6.394530269509e-05  2.508367288124e-04 -1.331486873672e-04
H -7.801548671000e-01  3.477337153000e-01 -1.843115930000e-01  1.198542291888e-03 -1.777225861894e-03  9.383497090987e-04
3
step 1849
H  7.530527275000e-01  3.161136176000e-01 -1.808359132000e-01 -2.369611164183e-03 -2.197585012044e-03  1.197418051899e-03
O -4.714526290000e-02 -1.260244278000e-01  6.537375760000e-02  7.861138037538e-05  2.367581243382e-04 -1.256599067157e-04
H -7.753728033000e-01  3.403373672000e-01 -1.804071553000e-01  9.628507348662e-04 -1.588574050266e-03  8.384236529306e-04
3
step 1850
H  7.427576571000e-01  3.066125382000e-01 -1.756591475000e-01 -2.302699012321e-03 -2.126740161749e-03  1.158507634580e-03
O -4.677005340000e-02 -1.250237803000e-01  6.484275170000e-02  9.212884077005e-05  2.186586919941e-04 -1.159847115177e-04
H -7.717291865000e-01  3.338324770000e-01 -1.769747446000e-01  6.812717522700e-04 -1.372020106816e-03  7.237869149822e-04
3
step 1851
H  7.329023495000e-01  2.975030141000e-01 -1.706980851000e-01 -2.166303495696e-03 -2.017634446485e-03  1.098268339281e-03
O -4.633906510000e-02 -1.241109970000e-01  6.435880270000e-02  1.036777601401e-04  1.967258896755e-04 -1.042165793144e-04
H -7.694111543000e-01  3.283311416000e-01 -1.740734660000e-01  3.614621283470e-04 -1.132885120583e-03  5.972413988421e-04
3
step 1852
H  7.238008442000e-01  2.889566932000e-01 -1.660484593000e-01 -1.957080646113e-03 -1.868968149033e-03  1.015954425491e-03
O -4.586279360000e-02 -1.233022783000e-01  6.393077690000e-02  1.123972948956e-04  1.712995322424e-04 -9.053095990837e-05
H -7.685661164000e-01  3.239188655000e-01 -1.717484255000e-01  1.374360747878e-05 -8.778529551675e-04  4.623047718023e-04
3
step 1853
H  7.157763965000e-01  2.811481130000e-01 -1.618077066000e-01 -1.674643827664e-03 -1.680947898186e-03  9.116608289106e-04
O -4.535550270000e-02 -1.226119950000e-01  6.356658750000e-02  1.174789534410e-04  1.428752152198e-04 -7.518794941530e-05
H -7.692908872000e-01  3.206492566000e-01 -1.700279456000e-01 -3.494380550932e-04 -6.145776979103e-04  3.230039092040e-04
3
step 1854
H  7.091464295000e-01  2.742471131000e-01 -1.580707296000e-01 -1.322463900305e-03 -1.455704337364e-03  7.865577877914e-04
O -4.483476290000e-02 -1.220520108000e-01  6.327282480000e-02  1.182774024862e-04  1.120962195057e-04 -5.852896712628e-05
H -7.716239667000e-01  3.185408404000e-01 -1.689218941000e-01 -7.143714502177e-04 -3.511395063278e-04  1.835888074513e-04
3
step 1855
H  7.042038256000e-01  2.684095864000e-01 -1.549247242000e-01 -9.085292810014e-04 -1.197579326941e-03  6.430533384455e-04
O -4.432048500000e-02 -1.216310673000e-01  6.305441430000e-02  1.144188735687e-04  7.973283203621e-05 -4.096672209922e-05
H -7.755421839000e-01  3.175765173000e-01 -1.684214031000e-01 -1.067137854299e-03 -9.542951674885e-05  4.820921571327e-05
3
step 1856
H  7.011961033000e-01  2.637673778000e-01 -1.524435209000e-01 -4.455382149190e-04 -9.131759924332e-04  4.848242748231e-04
O -4.383351020000e-02 -1.213542875000e-01  6.291433460000e-02  1.058818828525e-04  4.664879900452e-05 -2.296803523218e-05
H -7.809622393000e-01  3.177057591000e-01 -1.685000266000e-01 -1.394698992473e-03  1.454352428139e-04 -7.939275662764e-05
3
step 1857
H  7.003050254000e-01  2.604185978000e-01 -1.506821409000e-01  4.956603879455e-05 -6.110886315462e-04  3.166682208754e-04
O -4.339393750000e-02 -1.212228547000e-01  6.285342640000e-02  9.302703423704e-05  1.375544187262e-05 -5.029439111150e-06
H -7.877468671000e-01  3.188491869000e-01 -1.691161504000e-01 -1.685834675485e-03  3.655733391714e-04 -1.961248542267e-04
3
step 1858
H  7.016298440000e-01  2.584198847000e-01 -1.496724317000e-01  5.567652029969e-04 -3.013029403295e-04  1.441701968510e-04
O -4.301945250000e-02 -1.212339169000e-01  6.287032320000e-02  7.656456962276e-05 -1.804343724003e-05  1.235284450788e-05
H -7.957145825000e-01  3.209048056000e-01 -1.702162691000e-01 -1.931798097820e-03  5.606166971010e-04 -2.996901442005e-04
3
step 1859
H  7.051771469000e-01  2.577819665000e-01 -1.494205414000e-01  1.054716128956e-03  5.663303689581e-06 -2.677782783954e-05
O -4.272393890000e-02 -1.213807485000e-01  6.296152330000e-02  5.746357913499e-05 -4.791065438923e-05  2.871576125463e-05
H -8.046515784000e-01  3.237550119000e-01 -1.717386685000e-01 -2.126625826603e-03  7.277897329982e-04 -3.886281873846e-04
3
step 1860
H  7.108594171000e-01  2.584694430000e-01 -1.499067582000e-01  1.522773115531e-03  2.997258439363e-04 -1.905185832648e-04
O -4.251660220000e-02 -1.216531718000e-01  6.312160800000e-02  3.682316667422e-05 -7.513054186326e-05  4.366040200750e-05
H -8.143241855000e-01  3.272735225000e-01 -1.736170631000e-01 -2.267115906366e-03  8.658151414008e-04 -4.622652506864e-04
3
step 1861
H  7.185025766000e-01  2.604047970000e-01 -1.510877248000e-01  1.942870327441e-03  5.721091871191e-04 -3.421218764932e-04
O -4.240170810000e-02 -1.220381983000e-01  6.334358520000e-02  1.573630182017e-05 -9.915054911690e-05  5.687596422703e-05
H -8.244905770000e-01  3.313315568000e-01 -1.757838431000e-01 -2.352550210183e-03  9.746982429864e-04 -5.206009821367e-04
3
step 1862
H  7.278610188000e-01  2.634758360000e-01 -1.529005863000e-01  2.300912736503e-03  8.159727519117e-04 -4.777380921135e-04
O -4.237889750000e-02 -1.225208149000e-01  6.361931620000e-02 -4.825287818139e-06 -1.196031791392e-04  6.815285252478e-05
H -8.349107996000e-01  3.358028778000e-01 -1.781727200000e-01 -2.384258217241e-03  1.055448878603e-03 -5.641623208058e-04
3
step 1863
H  7.386373233000e-01  2.675451828000e-01 -1.552682986000e-01  2.587476366698e-03  1.026704671835e-03 -5.947655696005e-04
O -4.244393300000e-02 -1.230848176000e-01  6.393997480000e-02 -2.408673970464e-05 -1.363062398599e-04  7.738359744013e-05
H -8.453546605000e-01  3.405675420000e-01 -1.807206950000e-01 -2.365118039322e-03  1.109792053997e-03 -5.938514826660e-04
3
step 1864
H  7.505034166000e-01  2.724602874000e-01 -1.581052401000e-01  2.797815589529e-03  1.201892522391e-03 -6.918366708184e-04
O -4.258967490000e-02 -1.237135988000e-01  6.429648190000e-02 -4.150106166527e-05 -1.492442857725e-04  8.455316943004e-05
H -8.556073919000e-01  3.455144073000e-01 -1.833693748000e-01 -2.299070141038e-03  1.139903725201e-03 -6.108071978675e-04
3
step 1865
H  7.631203502000e-01  2.780626619000e-01 -1.613223988000e-01  2.931328341064e-03  1.341048652501e-03 -7.686658984438e-04
O -4.280709910000e-02 -1.243908193000e-01  6.467987970000e-02 -5.674221135020e-05 -1.585375943605e-04  8.972216205370e-05
H -8.654732831000e-01  3.505425717000e-01 -1.860657253000e-01 -2.190691251367e-03  1.148191965095e-03 -6.162898453526e-04
3
step 1866
H  7.761547822000e-01  2.841954891000e-01 -1.648316548000e-01  2.990702066329e-03  1.445197278900e-03 -8.258196669526e-04
O -4.308621270000e-02 -1.251009241000e-01  6.508161950000e-02 -6.967282019874e-05 -1.644058492731e-04  9.300686685751e-05
H -8.747776164000e-01  3.555619655000e-01 -1.887623824000e-01 -2.044851280512e-03  1.137130125424e-03 -6.115939267946e-04
3
step 1867
H  7.892912813000e-01  2.907092437000e-01 -1.685489527000e-01  2.980957578904e-03  1.516424276353e-03 -8.644641738076e-04
O -4.341678960000e-02 -1.258294963000e-01  6.549376090000e-02 -8.029999158981e-05 -1.671327239933e-04  9.455981450503e-05
H -8.833672962000e-01  3.604933302000e-01 -1.914176400000e-01 -1.866457694248e-03  1.109140229846e-03 -5.979869519408e-04
3
step 1868
H  8.022404416000e-01  2.974653616000e-01 -1.723963777000e-01  2.908554684265e-03  1.557464029781e-03 -8.861332003321e-04
O -4.378889900000e-02 -1.265634633000e-01  6.590909020000e-02 -8.873015278944e-05 -1.670352696571e-04  9.455296710373e-05
H -8.911105491000e-01  3.652677910000e-01 -1.939952257000e-01 -1.660278340844e-03  1.066518447885e-03 -5.766704203104e-04
3
step 1869
H  8.147433600000e-01  3.043382455000e-01 -1.763032961000e-01  2.780651462835e-03  1.571362293451e-03 -8.925382860216e-04
O -4.419324630000e-02 -1.272911826000e-01  6.632117170000e-02 -9.512934642264e-05 -1.644400817086e-04  9.316458106786e-05
H -8.978960019000e-01  3.698261826000e-01 -1.964639474000e-01 -1.430832939408e-03  1.011395774931e-03 -5.487592652770e-04
3
step 1870
H  8.265732693000e-01  3.112159839000e-01 -1.802067705000e-01  2.604547728931e-03  1.561225886008e-03 -8.854275934550e-04
O -4.462135360000e-02 -1.280024398000e-01  6.672435160000e-02 -9.969160352442e-05 -1.596664922274e-04  9.056985479334e-05
H -9.036314320000e-01  3.741182778000e-01 -1.987972891000e-01 -1.182339429718e-03  9.457254482054e-04 -5.152753220683e-04
3
step 1871
H  8.375351452000e-01  3.180001664000e-01 -1.840514649000e-01  2.387303880088e-03  1.530053256140e-03 -8.664901863787e-04
O -4.506562410000e-02 -1.286883866000e-01  6.711372730000e-02 -1.026159009831e-04 -1.530159422857e-04  8.693485833136e-05
H -9.082423765000e-01  3.781020038000e-01 -2.009730007000e-01 -9.186990523849e-04  8.712880160262e-04 -4.771500658130e-04
3
step 1872
H  8.474640046000e-01  3.246051205000e-01 -1.877892225000e-01  2.135506988370e-03  1.480631328173e-03 -8.372975433913e-04
O -4.551932130000e-02 -1.293414464000e-01  6.748509810000e-02 -1.040905057662e-04 -1.447664784298e-04  8.241319653729e-05
H -9.116707516000e-01  3.817427145000e-01 -2.029727172000e-01 -6.435106333193e-04  7.897090048381e-04 -4.352339227258e-04
3
step 1873
H  8.562224651000e-01  3.309568233000e-01 -1.913784590000e-01  1.855151807343e-03  1.415483502049e-03 -7.992737776908e-04
O -4.597649570000e-02 -1.299552040000e-01  6.783490580000e-02 -1.042833300496e-04 -1.351710933965e-04  7.714484802933e-05
H -9.138735868000e-01  3.850125618000e-01 -2.047816305000e-01 -3.601044687674e-04  7.024845261152e-04 -3.903098232089e-04
3
step 1874
H  8.636980022000e-01  3.369916840000e-01 -1.947834796000e-01  1.551606210527e-03  1.336855012312e-03 -7.536869201218e-04
O -4.643188020000e-02 -1.305242968000e-01  6.816017450000e-02 -1.033367796678e-04 -1.244588323023e-04  7.125648058949e-05
H -9.148219412000e-01  3.878899915000e-01 -2.063882268000e-01 -7.158867097319e-05  6.110113445895e-04 -3.431090724640e-04
3
step 1875
H  8.698002066000e-01  3.426553275000e-01 -1.979737961000e-01  1.229634576781e-03  1.246723807166e-03 -7.016547198117e-04
O -4.688077150000e-02 -1.310443140000e-01  6.845845450000e-02 -1.013659165604e-04 -1.128375946840e-04  6.486293217699e-05
H -9.145000425000e-01  3.903593785000e-01 -2.077840974000e-01  2.190978490252e-04  5.166189942994e-04 -2.943283638617e-04
3
step 1876
H  8.744582455000e-01  3.479014711000e-01 -2.009234952000e-01  8.934583655750e-04  1.146827302700e-03 -6.441597057109e-04
O -4.731890950000e-02 -1.315117121000e-01  6.872777480000e-02 -9.845865532651e-05 -1.004980015889e-04  5.806928617535e-05
H -9.129046674000e-01  3.924108030000e-01 -2.089638252000e-01  5.091280652643e-04  4.206030465391e-04 -2.446473454060e-04
3
step 1877
H  8.776186508000e-01  3.526909437000e-01 -2.036106864000e-01  5.468378241342e-04  1.038698672290e-03 -5.820696373760e-04
O -4.774236010000e-02 -1.319237485000e-01  6.896660520000e-02 -9.467731737410e-05 -8.761780661819e-05  5.097332146392e-05
H -9.100447824000e-01  3.940399769000e-01 -2.099249488000e-01  7.957298224115e-04  3.242580029817e-04 -1.947459896440e-04
3
step 1878
H  8.792434948000e-01  3.569908792000e-01 -2.060170498000e-01  1.931617213064e-04  9.237061894460e-04 -5.161596653177e-04
O -4.814740850000e-02 -1.322784349000e-01  6.917383030000e-02 -9.006080215919e-05 -7.436633896660e-05  4.366802191269e-05
H -9.059414227000e-01  3.952483086000e-01 -2.106680015000e-01  1.076130183488e-03  2.289088723471e-04 -1.453213282025e-04
3
step 1879
H  8.793089636000e-01  3.607740796000e-01 -2.081274784000e-01 -1.644572002119e-04  8.030963234688e-04 -4.471366443042e-04
O -4.853046100000e-02 -1.325745108000e-01  6.934873380000e-02 -8.462735265816e-05 -6.090917958526e-05  3.624416358472e-05
H -9.006278200000e-01  3.960431047000e-01 -2.111966216000e-01  1.347504019508e-03  1.359417871542e-04 -9.710366065680e-05
3
step 1880
H  8.778043685000e-01  3.640185864000e-01 -2.099298375000e-01 -5.230857843081e-04  6.780380235805e-04 -3.756639951867e-04
O -4.888796260000e-02 -1.328114369000e-01  6.949099450000e-02 -7.837760424403e-05 -4.741275963665e-05  2.879288365434e-05
H -8.941497316000e-01  3.964379032000e-01 -2.115177329000e-01  1.606925890255e-03  4.683333144146e-05 -5.087214631010e-05
3
step 1881
H  8.747315629000e-01  3.667074310000e-01 -2.114148257000e-01 -8.798765496643e-04  5.496667333616e-04 -3.023865164448e-04
O -4.921632500000e-02 -1.329894088000e-01  6.960069360000e-02 -7.129805409739e-05 -3.404871211413e-05  2.140809391043e-05
H -8.865659891000e-01  3.964529322000e-01 -2.116417918000e-01  1.851331281959e-03 -3.682469339787e-05 -7.468032751320e-06
3
step 1882
H  8.701047755000e-01  3.688285908000e-01 -2.125759509000e-01 -1.231975030430e-03  4.191302016021e-04 -2.279561327922e-04
O -4.951187510000e-02 -1.331093892000e-01  6.967833170000e-02 -6.336523912688e-05 -2.099799948108e-05  1.418873884470e-05
H -8.779491665000e-01  3.961156590000e-01 -2.115830839000e-01  2.077490552431e-03 -1.133059194506e-04  3.219494962531e-05
3
step 1883
H  8.639508388000e-01  3.703751410000e-01 -2.134096162000e-01 -1.576429068727e-03  2.876353582035e-04 -1.530581877348e-04
O -4.977081930000e-02 -1.331731573000e-01  6.972485590000e-02 -5.455058583081e-05 -8.454666485591e-06  7.240884611881e-06
H -8.683863574000e-01  3.954614187000e-01 -2.113600614000e-01  2.281995451096e-03 -1.807368830933e-04  6.712387277872e-05
3
step 1884
H  8.563098151000e-01  3.713456203000e-01 -2.139153271000e-01 -1.910098833939e-03  1.564983166635e-04 -7.843955996982e-05
O -4.998923440000e-02 -1.331833740000e-01  6.974169500000e-02 -4.482664975161e-05  3.370932693093e-06  6.795200151463e-07
H -8.579799605000e-01  3.945340730000e-01 -2.109956986000e-01  2.461268750157e-03 -2.370966273128e-04  9.624626819382e-05
3
step 1885
H  8.472360127000e-01  3.717446210000e-01 -2.140960224000e-01 -2.229569397222e-03  2.719684491731e-05 -4.938114524632e-06
O -5.016308680000e-02 -1.331436591000e-01  6.973080220000e-02 -3.417491822223e-05  1.424988092735e-05 -5.370154463764e-06
H -8.468483728000e-01  3.933866418000e-01 -2.105178329000e-01  2.611601288207e-03 -2.802326317422e-04  1.184184461542e-04
3
step 1886
H  8.367993772000e-01  3.715836134000e-01 -2.139585394000e-01 -2.531067611907e-03 -9.857471832147e-05  6.648646565288e-05
O -5.028829110000e-02 -1.330586766000e-01  6.969470200000e-02 -2.259560150999e-05  2.393363766246e-05 -1.077198615785e-05
H -8.351264512000e-01  3.920818231000e-01 -2.099594467000e-01  2.729224384474e-03 -3.078986470664e-04  1.324454757092e-04
3
step 1887
H  8.250872347000e-01  3.708820167000e-01 -2.135142150000e-01 -2.810386910934e-03 -2.188491941948e-04  1.347210298904e-04
O -5.036081560000e-02 -1.329342214000e-01  6.963653900000e-02 -1.011960891235e-05  3.215469257373e-05 -1.537910790835e-05
H -8.229655714000e-01  3.906922931000e-01 -2.093588337000e-01  2.810425115594e-03 -3.178205544075e-04  1.371159930596e-04
3
step 1888
H  8.122063416000e-01  3.696685156000e-01 -2.127796273000e-01 -3.062826777291e-03 -3.313317936319e-04  1.984681556272e-04
O -5.037684540000e-02 -1.327772984000e-01  6.956012300000e-02  3.177249056277e-06  3.862948645401e-05 -1.903534594166e-05
H -8.105330813000e-01  3.893006501000e-01 -2.087595768000e-01  2.851710063583e-03 -3.077958949076e-04  1.312550335091e-04
3
step 1889
H  7.982851572000e-01  3.679826100000e-01 -2.117774668000e-01 -3.283157117412e-03 -4.333518701391e-04  2.562192067701e-04
O -5.033301220000e-02 -1.325961839000e-01  6.946996520000e-02  1.715845404657e-05  4.306399701096e-05 -2.157816361192e-05
H -7.980109267000e-01  3.879988436000e-01 -2.082102517000e-01  2.850019463971e-03 -2.758311103008e-04  1.137970582224e-04
3
step 1890
H  7.834762050000e-01  3.658763552000e-01 -2.105375132000e-01 -3.465622151120e-03 -5.218292633141e-04  3.062359718700e-04
O -5.022669580000e-02 -1.324004555000e-01  6.937129760000e-02  3.161055729273e-05  4.516259295005e-05 -2.284349754963e-05
H -7.855932306000e-01  3.868869169000e-01 -2.077637655000e-01  2.802987631029e-03 -2.203172075542e-04  8.387957346836e-05
3
step 1891
H  7.679583120000e-01  3.634162048000e-01 -2.090976678000e-01 -3.604003130719e-03 -5.932676297148e-04  3.465477249503e-04
O -5.005639570000e-02 -1.322009766000e-01  6.927006710000e-02  4.622855689099e-05  4.464064544336e-05 -2.267267819940e-05
H -7.734826405000e-01  3.860708994000e-01 -2.074762413000e-01  2.709236920637e-03 -1.402379738054e-04  4.095432089779e-05
3
step 1892
H  7.519384204000e-01  3.606848095000e-01 -2.075049555000e-01 -3.691761990147e-03 -6.437901517370e-04  3.749720145467e-04
O -4.982216060000e-02 -1.320098157000e-01  6.917289430000e-02  6.060587353322e-05  4.124097469153e-05 -2.092141646278e-05
H -7.618853348000e-01  3.856597273000e-01 -2.074053838000e-01  2.568681616863e-03 -3.539636114039e-05 -1.509145763031e-05
3
step 1893
H  7.356525702000e-01  3.577825484000e-01 -2.058163757000e-01 -3.722291270552e-03 -6.692375633292e-04  3.891699685857e-04
O -4.952604800000e-02 -1.318400865000e-01  6.908698870000e-02  7.423272779167e-05  3.475395330893e-05 -1.747076502556e-05
H -7.510047112000e-01  3.857611542000e-01 -2.076083031000e-01  2.382804876884e-03  9.336619543983e-05 -8.381710578733e-05
3
step 1894
H  7.193655240000e-01  3.548284689000e-01 -2.040994205000e-01 -3.689295888055e-03 -6.653509865783e-04  3.867491288218e-04
O -4.917256740000e-02 -1.317056920000e-01  6.902001170000e-02  8.650760425949e-05  2.504044374667e-05 -1.223957441158e-05
H -7.410339692000e-01  3.864767529000e-01 -2.081388477000e-01  2.154860564773e-03  2.439930483284e-04 -1.641330274129e-04
3
step 1895
H  7.033684087000e-01  3.519602182000e-01 -2.024320250000e-01 -3.587322458897e-03 -6.280601670787e-04  3.654258823499e-04
O -4.876904020000e-02 -1.316209635000e-01  6.897988310000e-02  9.676594389915e-05  1.205606131408e-05 -5.197886097374e-06
H -7.321480326000e-01  3.878962800000e-01 -2.090445927000e-01  1.889948568337e-03  4.131189237660e-04 -2.542495641275e-04
3
step 1896
H  6.879737080000e-01  3.493324619000e-01 -2.009016645000e-01 -3.412432580003e-03 -5.538903046476e-04  3.232546804208e-04
O -4.832579140000e-02 -1.316001923000e-01  6.897452630000e-02  1.043284369628e-04 -4.124937624266e-06  3.619569239420e-06
H -7.244954733000e-01  3.900918596000e-01 -2.103637259000e-01  1.594921317011e-03  5.960977136967e-04 -3.516907724139e-04
3
step 1897
H  6.735070129000e-01  3.471132543000e-01 -1.996032992000e-01 -3.162982079701e-03 -4.404809748101e-04  2.589195192414e-04
O -4.785608660000e-02 -1.316570598000e-01  6.901155710000e-02  1.085677234462e-04 -2.328811238929e-05  1.410096594764e-05
H -7.181912509000e-01  3.931125911000e-01 -2.121221560000e-01  1.278102247611e-03  7.871747669891e-04 -4.533857070640e-04
3
step 1898
H  6.602951950000e-01  3.454779164000e-01 -1.986359206000e-01 -2.840419690750e-03 -2.871751561553e-04  1.720640596821e-04
O -4.737574070000e-02 -1.318039810000e-01  6.909792050000e-02  1.089872067689e-04 -4.506203945617e-05  2.604735913620e-05
H -7.133111009000e-01  3.969802410000e-01 -2.143311977000e-01  9.488301870301e-04  9.798024595594e-04 -5.558366990372e-04
3
step 1899
H  6.486511676000e-01  3.446002520000e-01 -1.980976071000e-01 -2.449963302071e-03 -9.559092435056e-05  6.361145302789e-05
O -4.690236510000e-02 -1.320513871000e-01  6.923949140000e-02  1.053000822933e-04 -6.890948122654e-05  3.916712173191e-05
H -7.098882609000e-01  4.016866122000e-01 -2.169861523000e-01  6.168793892348e-04  1.167067992396e-03 -6.553480257526e-04
3
step 1900
H  6.388561418000e-01  3.446414227000e-01 -1.980792717000e-01 -2.000972305615e-03  1.299526468111e-04 -6.399770954150e-05
O -4.645428450000e-02 -1.324069917000e-01  6.944066280000e-02  9.749230781852e-05 -9.413091943379e-05  5.307730207506e-05
H -7.079129343000e-01  4.071929788000e-01 -2.200659943000e-01  2.918317501516e-04  1.342176677301e-03 -7.482848278790e-04
3
step 1901
H  6.311411291000e-01  3.457374371000e-01 -1.986576360000e-01 -1.506836113545e-03  3.823004526463e-04 -2.067308160436e-04
O -4.604923290000e-02 -1.328751047000e-01  6.970395840000e-02  8.585267180883e-05 -1.198851750545e-04  6.731461724395e-05
H -7.073345098000e-01  4.134316849000e-01 -2.235342170000e-01 -1.751084380701e-05  1.498919050340e-03 -8.313236474296e-04
3
step 1902
H  6.256701729000e-01  3.479868441000e-01 -1.998883245000e-01 -9.842777939755e-04  6.517312265567e-04 -3.591159837664e-04
O -4.570300790000e-02 -1.334560788000e-01  7.002971720000e-02  7.095892946284e-05 -1.452306389890e-04  8.135803393766e-05
H -7.080661675000e-01  4.203096673000e-01 -2.273407122000e-01 -3.036008422710e-04  1.632059377296e-03 -9.016612049360e-04
3
step 1903
H  6.225279453000e-01  3.514405839000e-01 -2.018001756000e-01 -4.520937148857e-04  9.266636268643e-04 -5.146392908222e-04
O -4.542828790000e-02 -1.341459839000e-01  7.041590340000e-02  5.361774396471e-05 -1.691857147770e-04  9.466234268340e-05
H -7.099912494000e-01  4.277134531000e-01 -2.314244424000e-01 -5.604511847153e-04  1.737591192470e-03 -9.571520102736e-04
3
step 1904
H  6.217140071000e-01  3.560958598000e-01 -2.043918120000e-01  7.048552628313e-05  1.194714859680e-03 -6.663392521699e-04
O -4.523381160000e-02 -1.349365832000e-01  7.085808510000e-02  3.476960451191e-05 -1.908027047085e-04  1.066993930883e-04
H -7.129705442000e-01  4.355149196000e-01 -2.357165246000e-01 -7.837661324496e-04  1.812850509360e-03 -9.963696693011e-04
3
step 1905
H  6.231447476000e-01  3.618952530000e-01 -2.076311538000e-01  5.655076340362e-04  1.443913025473e-03 -8.074868835828e-04
O -4.512402730000e-02 -1.358156536000e-01  7.134960480000e-02  1.537915818967e-05 -2.092429803940e-04  1.170003027201e-04
H -7.168498027000e-01  4.435772819000e-01 -2.401434393000e-01 -9.709131750744e-04  1.856495040755e-03 -1.018596352210e-03
3
step 1906
H  6.266626315000e-01  3.687312035000e-01 -2.114579400000e-01  1.017761920025e-03  1.663816861170e-03 -9.322134593323e-04
O -4.509923220000e-02 -1.367676194000e-01  7.188192720000e-02 -3.666733115674e-06 -2.238392264657e-04  1.251904940442e-04
H -7.214667773000e-01  4.517606715000e-01 -2.446300219000e-01 -1.120767889760e-03  1.868371606906e-03 -1.023752033998e-03
3
step 1907
H  6.320509431000e-01  3.764549234000e-01 -2.157887348000e-01  1.415741285224e-03  1.846333835480e-03 -1.035968803546e-03
O -4.515611400000e-02 -1.377744180000e-01  7.244511740000e-02 -2.163383874400e-05 -2.341345731554e-04  1.310119644760e-04
H -7.266573792000e-01  4.599269629000e-01 -2.491020528000e-01 -1.233485568072e-03  1.849320948017e-03 -1.012290083024e-03
3
step 1908
H  6.390514509000e-01  3.848880370000e-01 -2.205234596000e-01  1.752008094223e-03  1.986122605132e-03 -1.115746427094e-03
O -4.528854490000e-02 -1.388164760000e-01  7.302838210000e-02 -3.798000266981e-05 -2.398936079034e-04  1.343297863842e-04
H -7.322607197000e-01  4.679436446000e-01 -2.534883346000e-01 -1.310238852623e-03  1.800952925618e-03 -9.850768418256e-04
3
step 1909
H  6.473823542000e-01  3.938350157000e-01 -2.255523696000e-01  2.023017884359e-03  2.080584083093e-03 -1.170078042357e-03
O -4.548846810000e-02 -1.398736706000e-01  7.362060580000e-02 -5.236032247803e-05 -2.410875789378e-04  1.351242129240e-04
H -7.381229715000e-01  4.756866788000e-01 -2.577222288000e-01 -1.352956004532e-03  1.725423648332e-03 -9.432721449942e-04
3
step 1910
H  6.567544051000e-01  4.030947395000e-01 -2.307625377000e-01  2.228556891464e-03  2.129534884251e-03 -1.198850461514e-03
O -4.574673780000e-02 -1.409261767000e-01  7.421082240000e-02 -6.460673057782e-05 -2.378613741619e-04  1.334724579157e-04
H -7.441001198000e-01  4.830424216000e-01 -2.617426875000e-01 -1.364083063644e-03  1.625235635640e-03 -8.882221833974e-04
3
step 1911
H  6.668839320000e-01  4.124700751000e-01 -2.360432283000e-01  2.370982431716e-03  2.134698103666e-03 -1.203020437487e-03
O -4.605382640000e-02 -1.419551396000e-01  7.478859190000e-02 -7.469306697076e-05 -2.304913899807e-04  1.295254293075e-04
H -7.500597420000e-01  4.899087341000e-01 -2.654948524000e-01 -1.346381987327e-03  1.503071944377e-03 -8.213702822676e-04
3
step 1912
H  6.775023153000e-01  4.217749811000e-01 -2.412898869000e-01  2.454432365035e-03  2.099140536049e-03 -1.184299569192e-03
O -4.640035920000e-02 -1.429431528000e-01  7.534426900000e-02 -8.269569983678e-05 -2.193423990717e-04  1.234837769843e-04
H -7.558819922000e-01  4.961954510000e-01 -2.689303059000e-01 -1.302769613120e-03  1.361667713686e-03 -7.441877186787e-04
3
step 1913
H  6.883620930000e-01  4.308391608000e-01 -2.464067556000e-01  2.484116658749e-03  2.026750403722e-03 -1.144861728273e-03
O -4.677747700000e-02 -1.438745534000e-01  7.586916940000e-02 -8.875668304121e-05 -2.048290714644e-04  1.155764180738e-04
H -7.614599728000e-01  5.018243683000e-01 -2.720070643000e-01 -1.236197129845e-03  1.203717834796e-03 -6.581239658971e-04
3
step 1914
H  6.992402365000e-01  4.395105977000e-01 -2.513083029000e-01  2.465746196388e-03  1.921806061754e-03 -1.087101119108e-03
O -4.717704810000e-02 -1.447355639000e-01  7.635565100000e-02 -9.305307081769e-05 -1.873848915429e-04  1.060430390476e-04
H -7.666996629000e-01  5.067289029000e-01 -2.746893941000e-01 -1.149566459774e-03  1.031816864854e-03 -5.645742710728e-04
3
step 1915
H  7.099392586000e-01  4.476564341000e-01 -2.559197221000e-01  2.405110496892e-03  1.788651514327e-03 -1.013450164450e-03
O -4.759176250000e-02 -1.455143146000e-01  7.679712710000e-02 -9.577344096376e-05 -1.674392434787e-04  9.512114599678e-05
H -7.715195588000e-01  5.108535552000e-01 -2.769475211000e-01 -1.045678414021e-03  8.484257086926e-04 -4.648618465118e-04
3
step 1916
H  7.202867934000e-01  4.551626668000e-01 -2.601767672000e-01  2.307791147665e-03  1.631473119983e-03 -9.262542363734e-04
O -4.801513900000e-02 -1.462007853000e-01  7.718803380000e-02 -9.710132029000e-05 -1.454022491272e-04  8.303750766531e-05
H -7.758501490000e-01  5.141532770000e-01 -2.787572909000e-01 -9.272066879535e-04  6.558594598928e-04 -3.602315022317e-04
3
step 1917
H  7.301341967000e-01  4.619330720000e-01 -2.640251553000e-01  2.178987835791e-03  1.454162876712e-03 -8.276949178483e-04
O -4.844147340000e-02 -1.467866955000e-01  7.752376880000e-02 -9.720444270212e-05 -1.216562522014e-04  7.000333758587e-05
H -7.796333266000e-01  5.165928273000e-01 -2.800998224000e-01 -7.966918274421e-04  4.562912313069e-04 -2.518518903381e-04
3
step 1918
H  7.393546040000e-01  4.678877045000e-01 -2.674197309000e-01  2.023431247074e-03  1.260249787958e-03 -7.197512541235e-04
O -4.886575220000e-02 -1.472653706000e-01  7.780061660000e-02 -9.622868801665e-05 -9.655241742585e-05  5.621249309437e-05
H -7.828218120000e-01  5.181461744000e-01 -2.809611876000e-01 -6.565502429232e-04  2.517674542922e-04 -1.408238060121e-04
3
step 1919
H  7.478407682000e-01  4.729612218000e-01 -2.703235295000e-01  1.845358912721e-03  1.052880623157e-03 -6.041887319776e-04
O -4.928354800000e-02 -1.476316030000e-01  7.801567110000e-02 -9.429531191737e-05 -7.041112821665e-05  4.184168559731e-05
H -7.853786436000e-01  5.187959851000e-01 -2.813321384000e-01 -5.090942442214e-04  4.423090755426e-05 -2.819261156734e-05
3
step 1920
H  7.555029063000e-01  4.771012154000e-01 -2.727068446000e-01  1.648534256824e-03  8.348344718914e-04 -4.825672973034e-04
O -4.969090840000e-02 -1.478815218000e-01  7.816676340000e-02 -9.150047513939e-05 -4.352475672471e-05  2.705211700008e-05
H -7.872767762000e-01  5.185332286000e-01 -2.812078946000e-01 -3.565598461179e-04 -1.644513172977e-04  8.503667915466e-05
3
step 1921
H  7.622667041000e-01  4.802666621000e-01 -2.745463625000e-01  1.436292201510e-03  6.085581236568e-04 -3.562611796602e-04
O -5.008424720000e-02 -1.480124780000e-01  7.825239790000e-02 -8.791605711226e-05 -1.616195146089e-05  1.199184292898e-05
H -7.884988150000e-01  5.173569103000e-01 -2.805880024000e-01 -2.011398260313e-04 -3.724570070163e-04  1.978828856571e-04
3
step 1922
H  7.680715619000e-01  4.824265646000e-01 -2.758244024000e-01  1.211599403961e-03  3.762128569116e-04 -2.264849837070e-04
O -5.046024110000e-02 -1.480229512000e-01  7.827170120000e-02 -8.359120096775e-05  1.142738942449e-05 -3.201475509480e-06
H -7.890369035000e-01  5.152739449000e-01 -2.794762679000e-01 -4.502017340242e-05 -5.779769300765e-04  3.093715057165e-04
3
step 1923
H  7.728691258000e-01  4.835588124000e-01 -2.765282794000e-01  9.771220676322e-04  1.397266630830e-04 -9.432289350579e-05
O -5.081573410000e-02 -1.479124795000e-01  7.822438250000e-02 -7.855422422993e-05  3.900683403228e-05 -1.839766912512e-05
H -7.888927760000e-01  5.122991700000e-01 -2.778807650000e-01  1.095819981923e-04 -7.791834337065e-04  4.185178802829e-04
3
step 1924
H  7.766221275000e-01  4.836492798000e-01 -2.766497999000e-01  7.352940140088e-04 -9.915321859778e-05  3.924199061437e-05
O -5.114765070000e-02 -1.476816116000e-01  7.811070750000e-02 -7.281439694543e-05  6.634821031259e-05 -3.347119460903e-05
H -7.880779772000e-01  5.084554937000e-01 -2.758139163000e-01  2.603791356207e-04 -9.741997814262e-04  5.243107377765e-04
3
step 1925
H  7.793035110000e-01  4.826911459000e-01 -2.761848820000e-01  4.883881597884e-04 -3.388059515619e-04  1.732972364315e-04
O -5.145291580000e-02 -1.473318819000e-01  7.793148390000e-02 -6.636406721186e-05  9.322643165999e-05 -4.829831877974e-05
H -7.866142594000e-01  5.037741766000e-01 -2.732926449000e-01  4.049753615078e-04 -1.161071977225e-03  6.256970639810e-04
3
step 1926
H  7.808958976000e-01  4.806844685000e-01 -2.751333166000e-01  2.385900098827e-04 -5.776834517366e-04  3.069709476078e-04
O -5.172838700000e-02 -1.468658090000e-01  7.768806020000e-02 -5.918128037738e-05  1.194148298931e-04 -6.275449024163e-05
H -7.845341330000e-01  4.982952256000e-01 -2.703385883000e-01  5.408346095931e-04 -1.337748145650e-03  7.215709853021e-04
3
step 1927
H  7.813913561000e-01  4.776359738000e-01 -2.734986513000e-01 -1.193194416619e-05 -8.142594662832e-04  4.394032221856e-04
O -5.197079730000e-02 -1.462869108000e-01  7.738233410000e-02 -5.123244852158e-05  1.446810321864e-04 -7.671203101528e-05
H -7.818815427000e-01  4.920678569000e-01 -2.669783468000e-01  6.652531162784e-04 -1.502063781097e-03  8.107658791715e-04
3
step 1928
H  7.807914839000e-01  4.735590752000e-01 -2.712882022000e-01 -2.609536408177e-04 -1.046977719845e-03  5.697169619962e-04
O -5.217671010000e-02 -1.455997393000e-01  7.701677130000e-02 -4.247571473278e-05  1.687833042473e-04 -9.003807500347e-05
H -7.787126593000e-01  4.851510184000e-01 -2.632437666000e-01  7.753408119696e-04 -1.651735887749e-03  8.920511377579e-04
3
step 1929
H  7.791078121000e-01  4.684741177000e-01 -2.685131920000e-01 -5.061203876674e-04 -1.274200403623e-03  6.969888740529e-04
O -5.234249230000e-02 -1.448099277000e-01  7.659443210000e-02 -3.286556984718e-05  1.914679402583e-04 -1.025930732647e-04
H -7.750967174000e-01  4.776139042000e-01 -2.591722169000e-01  8.680197486423e-04 -1.784373182115e-03  9.641376851996e-04
3
step 1930
H  7.763625433000e-01  4.624088468000e-01 -2.651890163000e-01 -7.448697024785e-04 -1.494156751300e-03  8.202204125200e-04
O -5.246430900000e-02 -1.439242483000e-01  7.611900340000e-02 -2.235893648837e-05  2.124678138612e-04 -1.142299026627e-04
H -7.711168224000e-01  4.695363879000e-01 -2.548068242000e-01  9.400440615254e-04 -1.897505315618e-03  1.025693743083e-03
3
step 1931
H  7.725896324000e-01  4.553991030000e-01 -2.613356359000e-01 -9.743517361402e-04 -1.704891784095e-03  9.383087892479e-04
O -5.253815010000e-02 -1.429506718000e-01  7.559483300000e-02 -1.092330549876e-05  2.315025015747e-04 -1.247939298604e-04
H -7.668706127000e-01  4.610092810000e-01 -2.501966119000e-01  9.880493727812e-04 -1.988636154505e-03  1.075373655349e-03
3
step 1932
H  7.678362202000e-01  4.474897394000e-01 -2.569780966000e-01 -1.191348251180e-03 -1.904216143718e-03  1.050018496262e-03
O -5.255989630000e-02 -1.418984243000e-01  7.502696110000e-02  1.452663844351e-06  2.482803214732e-04 -1.341240443732e-04
H -7.624706345000e-01  4.521343001000e-01 -2.453964820000e-01  1.008639906175e-03 -2.055326158933e-03  1.111862533537e-03
3
step 1933
H  7.621644237000e-01  4.387357550000e-01 -2.521471707000e-01 -1.392192660755e-03 -2.089659257610e-03  1.153954638382e-03
O -5.252543820000e-02 -1.407780291000e-01  7.442114500000e-02  1.474565472252e-05  2.625026665225e-04 -1.420549897929e-04
H -7.580442419000e-01  4.430236047000e-01 -2.404669641000e-01  9.985213897381e-04 -2.095307792305e-03  1.133938637612e-03
3
step 1934
H  7.556534693000e-01  4.292036222000e-01 -2.468801106000e-01 -1.572696695636e-03 -2.258429881823e-03  1.248540233490e-03
O -5.243086050000e-02 -1.396013252000e-01  7.378387120000e-02  2.888134677676e-05  2.738709708273e-04 -1.484211166029e-04
H -7.537328084000e-01  4.337987539000e-01 -2.354736514000e-01  9.546857527665e-04 -2.106635492160e-03  1.140554283177e-03
3
step 1935
H  7.484021244000e-01  4.189727657000e-01 -2.412214885000e-01 -1.728093028651e-03 -2.407390516968e-03  1.332001361260e-03
O -5.227270430000e-02 -1.383814486000e-01  7.312234670000e-02  4.371567946006e-05  2.820965373441e-04 -1.530616342906e-04
H -7.496900112000e-01  4.245889324000e-01 -2.304862415000e-01  8.746495369708e-04 -2.087867363997e-03  1.130933707204e-03
3
step 1936
H  7.405313332000e-01  4.081371134000e-01 -2.352240797000e-01 -1.853009119259e-03 -2.533056274601e-03  1.402366024967e-03
O -5.204831490000e-02 -1.371327646000e-01  7.244446490000e-02  5.901517832898e-05  2.869132224859e-04 -1.558273673276e-04
H -7.460789558000e-01  4.155283171000e-01 -2.255771162000e-01  7.567400885984e-04 -2.038269026313e-03  1.104682594454e-03
3
step 1937
H  7.321868770000e-01  3.968065854000e-01 -2.289497129000e-01 -1.941492221649e-03 -2.631630640953e-03  1.457483948622e-03
O -5.175627630000e-02 -1.358707384000e-01  7.175873810000e-02  7.443860693361e-05  2.880927856372e-04 -1.565889693088e-04
H -7.430679564000e-01  4.067525191000e-01 -2.208194237000e-01  6.004127238449e-04 -1.958021587842e-03  1.061899743147e-03
3
step 1938
H  7.235417909000e-01  3.851083320000e-01 -2.224699801000e-01 -1.987111478671e-03 -2.699093697789e-03  1.495076003498e-03
O -5.139692010000e-02 -1.346117324000e-01  7.107419160000e-02  8.952356913184e-05  2.854621356465e-04 -1.552462707068e-04
H -7.408248851000e-01  3.983941303000e-01 -2.162846811000e-01  4.065673640263e-04 -1.848406225710e-03  1.003276055160e-03
3
step 1939
H  7.147981313000e-01  3.731874505000e-01 -2.158666540000e-01 -1.983168152596e-03 -2.731360581697e-03  1.512823018655e-03
O -5.097287660000e-02 -1.333727263000e-01  7.040021440000e-02  1.036830442495e-04  2.789214458135e-04 -1.517382071466e-04
H -7.395101809000e-01  3.905775505000e-01 -2.120399906000e-01  1.778178651730e-04 -1.711930025853e-03  9.301618215731e-04
3
step 1940
H  7.061875524000e-01  3.612068373000e-01 -2.092316213000e-01 -1.923046981826e-03 -2.724526285535e-03  1.508503387197e-03
O -5.048961420000e-02 -1.321709563000e-01  6.974636620000e-02  1.162172351872e-04  2.684617386374e-04 -1.460526882565e-04
H -7.392688427000e-01  3.834134328000e-01 -2.081450535000e-01 -8.134222274867e-05 -1.552355936975e-03  8.445824607247e-04
3
step 1941
H  6.979699990000e-01  3.493457612000e-01 -2.026660953000e-01 -1.800739390003e-03 -2.675209450094e-03  1.480187188721e-03
O -4.995588690000e-02 -1.310234807000e-01  6.912214160000e-02  1.263460867200e-04  2.541805827303e-04 -1.382356757323e-04
H -7.402219876000e-01  3.769932484000e-01 -2.046492480000e-01 -3.645330781260e-04 -1.374606797222e-03  7.491864267626e-04
3
step 1942
H  6.904297050000e-01  3.377967079000e-01 -1.962788510000e-01 -1.611553261664e-03 -2.580994368876e-03  1.426486809695e-03
O -4.938398930000e-02 -1.299466818000e-01  6.853669830000e-02  1.332659845400e-04  2.362949602633e-04 -1.283989312307e-04
H -7.424587861000e-01  3.713845717000e-01 -2.015890991000e-01 -6.636812262871e-04 -1.184531238079e-03  6.471187704155e-04
3
step 1943
H  6.838676750000e-01  3.267600858000e-01 -1.901832444000e-01 -1.352986548147e-03 -2.440944579760e-03  1.346849256186e-03
O -4.878970760000e-02 -1.289557190000e-01  6.799855280000e-02  1.362297894015e-04  2.151505644394e-04 -1.167260455568e-04
H -7.460297061000e-01  3.666276938000e-01 -1.989864637000e-01 -9.694201124766e-04 -9.885452837073e-04  5.418278438931e-04
3
step 1944
H  6.785900376000e-01  3.164365754000e-01 -1.844928895000e-01 -1.025680596803e-03 -2.256124213704e-03  1.241853554136e-03
O -4.819187440000e-02 -1.280639497000e-01  6.751525610000e-02  1.346430572793e-04  1.912264619432e-04 -1.034758532222e-04
H -7.509419537000e-01  3.627340442000e-01 -1.968476909000e-01 -1.271666846857e-03 -7.931913426477e-04  4.368277719400e-04
3
step 1945
H  6.748921851000e-01  3.070172729000e-01 -1.793160757000e-01 -6.342940997329e-04 -2.030023923218e-03  1.113454728039e-03
O -4.761147780000e-02 -1.272823412000e-01  6.709305990000e-02  1.281620376577e-04  1.651328622786e-04 -8.898196620085e-05
H -7.571577639000e-01  3.596866628000e-01 -1.951638865000e-01 -1.560303667213e-03 -6.046767761629e-04  3.354502632502e-04
3
step 1946
H  6.730394790000e-01  2.986723130000e-01 -1.747493088000e-01 -1.880776858260e-04 -1.768764421143e-03  9.651026933961e-04
O -4.707035850000e-02 -1.266189109000e-01  6.673659580000e-02  1.167734014162e-04  1.375981863279e-04 -7.364631506432e-05
H -7.645958045000e-01  3.574426598000e-01 -1.939122445000e-01 -1.825867432947e-03 -4.284605675215e-04  2.406226961560e-04
3
step 1947
H  6.732463615000e-01  2.915392310000e-01 -1.708706888000e-01  2.990856713379e-04 -1.480958993238e-03  8.016686814367e-04
O -4.658962120000e-02 -1.260782518000e-01  6.644859830000e-02  1.008347355754e-04  1.094413202066e-04 -5.792428399639e-05
H -7.731355008000e-01  3.559373050000e-01 -1.930582538000e-01 -2.060150089155e-03 -2.689442198805e-04  1.547026062418e-04
3
step 1948
H  6.756567074000e-01  2.857127888000e-01 -1.677340945000e-01  8.093342237760e-04 -1.177178797506e-03  6.291462435469e-04
O -4.618797740000e-02 -1.256612156000e-01  6.622971400000e-02  8.106056051850e-05  8.152757339979e-05 -4.230041120320e-05
H -7.826236939000e-01  3.550891921000e-01 -1.925584783000e-01 -2.256629911203e-03 -1.293035104251e-04  7.938817645668e-05
3
step 1949
H  6.803286551000e-01  2.812380159000e-01 -1.653651778000e-01  1.322193533087e-03 -8.690559460430e-04  4.541450463859e-04
O -4.588027930000e-02 -1.253648231000e-01  6.607843730000e-02  5.845069282729e-05  5.471044842475e-05 -2.725568320140e-05
H -7.928827390000e-01  3.548058004000e-01 -1.923635465000e-01 -2.410701006946e-03 -1.146042882142e-05  1.570410349256e-05
3
step 1950
H  6.872269124000e-01  2.781078844000e-01 -1.637599780000e-01  1.816462806092e-03 -5.681724067577e-04  2.832603350167e-04
O -4.567648910000e-02 -1.251824573000e-01  6.599120590000e-02  3.417312180787e-05  2.976726246011e-05 -1.323094830283e-05
H -8.037191720000e-01  3.549889046000e-01 -1.924210554000e-01 -2.519700226379e-03  8.382669580597e-05 -3.594909452676e-05
3
step 1951
H  6.962240944000e-01  2.762660727000e-01 -1.628864332000e-01  2.272252805796e-03 -2.849626136076e-04  1.224473556032e-04
O -4.558123830000e-02 -1.251043368000e-01  6.596265640000e-02  9.426471802090e-06  7.340898724350e-06 -5.933835464368e-07
H -8.149320437000e-01  3.555393481000e-01 -1.926781286000e-01 -2.582762410860e-03  1.567875987989e-04 -7.570012863321e-05
3
step 1952
H  7.071108628000e-01  2.756142435000e-01 -1.626884699000e-01  2.672763657084e-03 -2.784963812645e-05 -2.347351332172e-05
O -4.559400030000e-02 -1.251182188000e-01  6.598601330000e-02 -1.468801404801e-05 -1.210115451424e-05  1.038744378008e-05
H -8.263203190000e-01  3.563609160000e-01 -1.930834894000e-01 -2.600566463316e-03  2.084257124228e-04 -1.040913788327e-04
3
step 1953
H  7.196128212000e-01  2.760223671000e-01 -1.630918444000e-01  3.005480097650e-03  1.972436684038e-04 -1.510993190074e-04
O -4.570976970000e-02 -1.252102312000e-01  6.605355450000e-02 -3.726166090616e-05 -2.828357961360e-05  1.954981524505e-05
H -8.376889898000e-01  3.573632325000e-01 -1.935890078000e-01 -2.575020783745e-03  2.402956984611e-04 -1.219591697160e-04
3
step 1954
H  7.334111130000e-01  2.773402765000e-01 -1.640107046000e-01  3.262643665279e-03  3.869779910971e-04 -2.584966167890e-04
O -4.592006830000e-02 -1.253657218000e-01  6.615708920000e-02 -5.762857956541e-05 -4.111553651629e-05  2.683609017398e-05
H -8.488537209000e-01  3.584636872000e-01 -1.941507255000e-01 -2.508938552462e-03  2.543000648549e-04 -1.303245274388e-04
3
step 1955
H  7.481634493000e-01  2.794087205000e-01 -1.653538875000e-01  3.441055741355e-03  5.403447827065e-04 -3.450621999792e-04
O -4.621406390000e-02 -1.255700236000e-01  6.628839080000e-02 -7.537199732318e-05 -5.066408678738e-05  3.227811035420e-05
H -8.596441216000e-01  3.595885526000e-01 -1.947294472000e-01 -2.405740032706e-03  2.525214866495e-04 -1.303033315778e-04
3
step 1956
H  7.635229833000e-01  2.820687068000e-01 -1.670302628000e-01  3.541404677120e-03  6.582062672725e-04 -4.112647635977e-04
O -4.657963090000e-02 -1.258090713000e-01  6.643954730000e-02 -9.029776429769e-05 -5.711712257006e-05  3.597657555255e-05
H -8.699057867000e-01  3.606734434000e-01 -1.952909793000e-01 -2.269198362002e-03  2.370926550887e-04 -1.230367349283e-04
3
step 1957
H  7.791534496000e-01  2.851685289000e-01 -1.689527689000e-01  3.567348315039e-03  7.427587190510e-04 -4.583408578133e-04
O -4.700423840000e-02 -1.260698421000e-01  6.660321340000e-02 -1.023891779493e-04 -6.074401002676e-05  3.807893344843e-05
H -8.795013433000e-01  3.616632948000e-01 -1.958061127000e-01 -2.103237393842e-03  2.101034080202e-04 -1.096416592615e-04
3
step 1958
H  7.947400103000e-01  2.885684138000e-01 -1.710410960000e-01  3.524558419776e-03  7.970217551664e-04 -4.880036814050e-04
O -4.747561460000e-02 -1.263406278000e-01  6.677276710000e-02 -1.117560938158e-04 -6.185999016599e-05  3.875944537685e-05
H -8.883107230000e-01  3.625120090000e-01 -1.962504277000e-01 -1.911783733478e-03  1.735417133415e-04 -9.117949748959e-05
3
step 1959
H  8.099960322000e-01  2.921430790000e-01 -1.732231744000e-01  3.419867843049e-03  8.244137281657e-04 -5.022001864278e-04
O -4.798218970000e-02 -1.266111643000e-01  6.694238820000e-02 -1.185874690900e-04 -6.079750020702e-05  3.820310544867e-05
H -8.962309136000e-01  3.631819175000e-01 -1.966040031000e-01 -1.698668053977e-03  1.292624534435e-04 -6.863968538741e-05
3
step 1960
H  8.246664703000e-01  2.957826646000e-01 -1.754357318000e-01  3.260589609445e-03  8.284349719992e-04 -5.029295306580e-04
O -4.851334570000e-02 -1.268726525000e-01  6.710707350000e-02 -1.231123488885e-04 -5.788531597496e-05  3.659387015119e-05
H -9.031753680000e-01  3.636431543000e-01 -1.968510775000e-01 -1.467565412298e-03  7.897607991666e-05 -4.293383696285e-05
3
step 1961
H  8.385286858000e-01  2.993925188000e-01 -1.776241925000e-01  3.054021421468e-03  8.124534984727e-04 -4.921197878014e-04
O -4.905951690000e-02 -1.271177051000e-01  6.726261250000e-02 -1.255703922566e-04 -5.343496223183e-05  3.410687845696e-05
H -9.090732337000e-01  3.638730186000e-01 -1.969797070000e-01 -1.221968412782e-03  2.425244407352e-05 -1.489802082905e-05
3
step 1962
H  8.513914942000e-01  3.028922543000e-01 -1.797421565000e-01  2.807118131595e-03  7.795761216578e-04 -4.715532843070e-04
O -4.961218270000e-02 -1.273402493000e-01  6.740553480000e-02 -1.261913665335e-04 -4.773329846767e-05  3.090396764440e-05
H -9.138685265000e-01  3.638553818000e-01 -1.969814466000e-01 -9.651850679080e-04 -3.346510142749e-05  1.469952389880e-05
3
step 1963
H  8.630931171000e-01  3.062144063000e-01 -1.817506446000e-01  2.526301454918e-03  7.325846874685e-04 -4.428288335265e-04
O -5.016378790000e-02 -1.275354080000e-01  6.753304590000e-02 -1.251821062062e-04 -4.103972600188e-05  2.713176717878e-05
H -9.175193415000e-01  3.635801734000e-01 -1.968510749000e-01 -7.003546049151e-04 -9.283921980134e-05  4.514723886395e-05
3
step 1964
H  8.734985647000e-01  3.093029308000e-01 -1.836172476000e-01  2.217374148078e-03  6.739185803330e-04 -4.073507286761e-04
O -5.070762190000e-02 -1.276993783000e-01  6.764295860000e-02 -1.227193363941e-04 -3.358667708331e-05  2.292168042804e-05
H -9.199971651000e-01  3.630429676000e-01 -1.965863737000e-01 -4.304754130689e-04 -1.526145648085e-04  7.577723274881e-05
3
step 1965
H  8.824968373000e-01  3.121117095000e-01 -1.853152751000e-01  1.885509802152e-03  6.056881711608e-04 -3.663358690715e-04
O -5.123767600000e-02 -1.278293171000e-01  6.773362810000e-02 -1.189467611041e-04 -2.558221580573e-05  1.839115540893e-05
H -9.212863307000e-01  3.622446792000e-01 -1.961879662000e-01 -1.584405239906e-04 -2.115923064107e-04  1.059515041938e-04
3
step 1966
H  8.899982179000e-01  3.146031657000e-01 -1.868229667000e-01  1.535293849360e-03  5.297074316340e-04 -3.208320945239e-04
O -5.174849700000e-02 -1.279232422000e-01  6.780389520000e-02 -1.139751089404e-04 -1.721380463560e-05  1.364577374710e-05
H -9.213836409000e-01  3.611913730000e-01 -1.956592169000e-01  1.129218296047e-04 -2.686042313215e-04  1.350479635909e-04
3
step 1967
H  8.959318331000e-01  3.167470547000e-01 -1.881228014000e-01  1.170795570477e-03  4.475366184755e-04 -2.717424483620e-04
O -5.223504540000e-02 -1.279799511000e-01  6.785303910000e-02 -1.078841169312e-04 -8.652610321348e-06  8.781677893545e-06
H -9.202981783000e-01  3.598941867000e-01 -1.950061932000e-01  3.808072986279e-04 -3.224881828677e-04  1.624471496737e-04
3
step 1968
H  9.002435749000e-01  3.185194535000e-01 -1.892009210000e-01  7.956578241352e-04  3.605296750183e-04 -2.198521373602e-04
O -5.269256560000e-02 -1.279989592000e-01  6.788074160000e-02 -1.007257165359e-04 -5.792407830009e-08  3.888103474575e-06
H -9.180512857000e-01  3.583693547000e-01 -1.942376801000e-01  6.423968152768e-04 -3.720657177999e-04  1.875201894275e-04
3
step 1969
H  9.028944477000e-01  3.199019652000e-01 -1.900466758000e-01  4.131918316771e-04  2.698811436755e-04 -1.658553225393e-04
O -5.311647250000e-02 -1.279804580000e-01  6.788706290000e-02 -9.252783217019e-05  8.418660490896e-06 -9.502072049171e-07
H -9.146767147000e-01  3.566383270000e-01 -1.933652481000e-01  8.948212864088e-04 -4.161223823033e-04  2.096181521626e-04
3
step 1970
H  9.038593195000e-01  3.208811200000e-01 -1.906522819000e-01  2.647922994726e-05  1.766746188464e-04 -1.103828196015e-04
O -5.350225490000e-02 -1.279252895000e-01  6.787242660000e-02 -8.329885167199e-05  1.662911061511e-05 -5.650614513337e-06
H -9.102209149000e-01  3.547279655000e-01 -1.924033609000e-01  1.135130839659e-03 -4.533902643798e-04  2.280626423368e-04
3
step 1971
H  9.031261613000e-01  3.214480033000e-01 -1.910126099000e-01 -3.615222556612e-04  8.193144665880e-05 -5.403018790292e-05
O -5.384540120000e-02 -1.278349405000e-01  6.783761580000e-02 -7.303335380107e-05  2.442537523910e-05 -1.013053824246e-05
H -9.047434514000e-01  3.526708153000e-01 -1.913695255000e-01  1.360280406413e-03 -4.825400356870e-04  2.421413702288e-04
3
step 1972
H  9.006957232000e-01  3.215980828000e-01 -1.911250874000e-01 -7.478794598936e-04 -1.334336361672e-05  2.615890138357e-06
O -5.414135260000e-02 -1.277115488000e-01  6.778377670000e-02 -6.171825627270e-05  3.165629957900e-05 -1.430567490618e-05
H -8.983174206000e-01  3.505053711000e-01 -1.902844387000e-01  1.567127248883e-03 -5.021778889488e-04  2.511064972254e-04
3
step 1973
H  8.965816439000e-01  3.213312387000e-01 -1.909897188000e-01 -1.129580865489e-03 -1.081131666187e-04  5.895004116707e-05
O -5.438548310000e-02 -1.275579237000e-01  6.771243010000e-02 -4.934002427028e-05  3.816491907318e-05 -1.808842987755e-05
H -8.910298890000e-01  3.482763746000e-01 -1.891721515000e-01  1.752443356737e-03 -5.108500038505e-04  2.541769899016e-04
3
step 1974
H  8.908110264000e-01  3.206520099000e-01 -1.906092295000e-01 -1.503431469514e-03 -2.012596738382e-04  1.143193165591e-04
O -5.457311560000e-02 -1.273775765000e-01  6.762548910000e-02 -3.589392677889e-05  4.378660354457e-05 -2.138677006058e-05
H -8.829822005000e-01  3.460350427000e-01 -1.880601955000e-01  1.912956718919e-03 -5.070630161064e-04  2.505495859186e-04
3
step 1975
H  8.834254683000e-01  3.195700625000e-01 -1.899893373000e-01 -1.865948431346e-03 -2.915309307393e-04  1.679932841794e-04
O -5.469958240000e-02 -1.271747574000e-01  6.752527950000e-02 -2.139488363689e-05  4.834796015367e-05 -2.410356566205e-05
H -8.742900542000e-01  3.438391853000e-01 -1.869796509000e-01  2.045419605678e-03 -4.893181264773e-04  2.394170781399e-04
3
step 1976
H  8.744825501000e-01  3.181008912000e-01 -1.891391597000e-01 -2.213256770936e-03 -3.774862632863e-04  2.191323374383e-04
O -5.476033720000e-02 -1.269544949000e-01  6.741456440000e-02 -5.890474684164e-06  5.166677397517e-05 -2.613633421386e-05
H -8.650832141000e-01  3.417531348000e-01 -1.859651129000e-01  2.146710662498e-03 -4.561640881379e-04  2.199968469933e-04
3
step 1977
H  8.640577783000e-01  3.162667689000e-01 -1.880717618000e-01 -2.540988490766e-03 -4.574385778465e-04  2.667545644746e-04
O -5.475112860000e-02 -1.267226336000e-01  6.729656660000e-02  1.052398498454e-05  5.355308218980e-05 -2.737770224702e-05
H -8.555046936000e-01  3.398474005000e-01 -1.850545102000e-01  2.213973467129e-03 -4.062712344896e-04  1.915707472694e-04
3
step 1978
H  8.522469568000e-01  3.140979537000e-01 -1.868048532000e-01 -2.844191232988e-03 -5.293958611617e-04  3.097021282373e-04
O -5.466824430000e-02 -1.264858644000e-01  6.717498860000e-02  2.768865563043e-05  5.381160130062e-05 -2.771649319646e-05
H -8.457092525000e-01  3.381979506000e-01 -1.842887223000e-01  2.244791092608e-03 -3.385273702052e-04  1.535369435894e-04
3
step 1979
H  8.391689290000e-01  3.116341501000e-01 -1.853616312000e-01 -3.117256783951e-03 -5.910056789157e-04  3.466093287069e-04
O -5.450883160000e-02 -1.262517409000e-01  6.705402610000e-02  4.536178467670e-05  5.224551651602e-05 -2.703965180426e-05
H -8.358610542000e-01  3.368850270000e-01 -1.837109445000e-01  2.237390999060e-03 -2.521539804965e-04  1.054728580439e-04
3
step 1980
H  8.249685751000e-01  3.089262019000e-01 -1.837717564000e-01 -3.353885502461e-03 -6.395093648821e-04  3.758764017579e-04
O -5.427129400000e-02 -1.260286762000e-01  6.693837100000e-02  6.320335613817e-05  4.866175671705e-05 -2.523500959207e-05
H -8.261303695000e-01  3.359914104000e-01 -1.833657541000e-01  2.190868319314e-03 -1.468375019225e-04  4.720640053667e-05
3
step 1981
H  8.098198650000e-01  3.060379539000e-01 -1.820724251000e-01 -3.547108955512e-03 -6.717164505892e-04  3.956552712615e-04
O -5.395575390000e-02 -1.258259133000e-01  6.683320040000e-02  8.076258885718e-05  4.287780529052e-05 -2.219511995442e-05
H -8.166892802000e-01  3.356000865000e-01 -1.832978523000e-01  2.105407265835e-03 -2.286546134353e-05 -2.110985712944e-05
3
step 1982
H  7.939286580000e-01  3.030481691000e-01 -1.803094701000e-01 -3.689399312155e-03 -6.840142141987e-04  4.038559256707e-04
O -5.356455960000e-02 -1.256534626000e-01  6.674414670000e-02  9.747284894847e-05  3.473005596981e-05 -1.782210344936e-05
H -8.077064452000e-01  3.357913201000e-01 -1.835504816000e-01  1.982471962038e-03  1.187482504608e-04 -9.893026209185e-05
3
step 1983
H  7.775347984000e-01  3.000523063000e-01 -1.785383768000e-01 -3.772898685723e-03 -6.724316520560e-04  3.981841930038e-04
O -5.310279190000e-02 -1.255219987000e-01  6.667724340000e-02  1.126581589443e-04  2.408385081437e-05 -1.203349414437e-05
H -7.993411339000e-01  3.366392246000e-01 -1.841635678000e-01  1.824933955708e-03  2.761687402089e-04 -1.852639569856e-04
3
step 1984
H  7.609129080000e-01  2.971638777000e-01 -1.768250538000e-01 -3.789805806316e-03 -6.327825838913e-04  3.762246227400e-04
O -5.257871450000e-02 -1.254427104000e-01  6.663884440000e-02  1.255557923903e-04  1.084523689607e-05 -4.769128156996e-06
H -7.917368769000e-01  3.382080079000e-01 -1.851716829000e-01  1.637099796018e-03  4.466996996510e-04 -2.786520887931e-04
3
step 1985
H  7.443710982000e-01  2.945149745000e-01 -1.752461235000e-01 -3.732954731341e-03 -5.609152447119e-04  3.355846149318e-04
O -5.200408270000e-02 -1.254270946000e-01  6.663550990000e-02  1.353587387041e-04 -5.025014355169e-06  4.000747339912e-06
H -7.850152582000e-01  3.405481887000e-01 -1.866019868000e-01  1.424615553879e-03  6.268147719691e-04 -3.771838211588e-04
3
step 1986
H  7.282466982000e-01  2.922554401000e-01 -1.738884317000e-01 -3.596601464736e-03 -4.530915430698e-04  2.741134273426e-04
O -5.139422200000e-02 -1.254866832000e-01  6.667385400000e-02  1.412794781707e-04 -2.349457205189e-05  1.426561897987e-05
H -7.792704009000e-01  3.436931167000e-01 -1.884723299000e-01  1.194238691028e-03  8.122717543633e-04 -4.785573576244e-04
3
step 1987
H  7.128980838000e-01  2.905500769000e-01 -1.728474213000e-01 -3.377394386404e-03 -3.065033130666e-04  1.902003985136e-04
O -5.076777920000e-02 -1.256326901000e-01  6.676034500000e-02  1.426332478046e-04 -4.443958873692e-05  2.596302365288e-05
H -7.745647560000e-01  3.476561880000e-01 -1.907897297000e-01  9.534860725170e-04  9.983097465288e-04 -5.801862089096e-04
3
step 1988
H  6.986919135000e-01  2.895733016000e-01 -1.722240326000e-01 -3.075437103287e-03 -1.198981384924e-04  8.313532768390e-05
O -5.014607190000e-02 -1.258755636000e-01  6.690105030000e-02  1.389327027882e-04 -6.762216978185e-05  3.896504568602e-05
H -7.709266683000e-01  3.524290907000e-01 -1.935494031000e-01  7.101957421754e-04  1.179910928910e-03 -6.793409816572e-04
3
step 1989
H  6.859856563000e-01  2.895008765000e-01 -1.721199235000e-01 -2.695268651659e-03  1.057637491814e-04 -4.651490442579e-05
O -4.955201170000e-02 -1.262244358000e-01  6.710131890000e-02  1.299795564583e-04 -9.266802562674e-05  5.306485973438e-05
H -7.683499999000e-01  3.579813113000e-01 -1.967344831000e-01  4.720545661921e-04  1.352097304754e-03 -7.733106717594e-04
3
step 1990
H  6.751062507000e-01  2.904988154000e-01 -1.726310737000e-01 -2.246515312138e-03  3.667547764446e-04 -1.965895267412e-04
O -4.900865140000e-02 -1.266864797000e-01  6.736540840000e-02  1.159337125482e-04 -1.190500480733e-04  6.796677050903e-05
H -7.667958297000e-01  3.642609766000e-01 -2.003164631000e-01  2.461536365615e-04  1.510223858482e-03 -8.595624675282e-04
3
step 1991
H  6.663269286000e-01  2.927102614000e-01 -1.738402323000e-01 -1.743947468713e-03  6.562976661499e-04 -3.631733250152e-04
O -4.853750310000e-02 -1.272662148000e-01  6.769608020000e-02  9.733978629701e-05 -1.460862441797e-04  8.328457634872e-05
H -7.661959673000e-01  3.711969255000e-01 -2.042563123000e-01  3.862345726689e-05  1.650232238648e-03 -9.358806084116e-04
3
step 1992
H  6.598453761000e-01  2.962419220000e-01 -1.758091181000e-01 -1.206746461418e-03  9.647127252070e-04 -5.406829885642e-04
O -4.815685380000e-02 -1.279648461000e-01  6.809421220000e-02  7.509655626335e-05 -1.729604658768e-04  9.855332590619e-05
H -7.664578449000e-01  3.787017712000e-01 -2.085061344000e-01 -1.456153824921e-04  1.768836465130e-03 -1.000468392075e-03
3
step 1993
H  6.557669738000e-01  3.011522358000e-01 -1.785716221000e-01 -6.569736299046e-04  1.280069316764e-03 -7.222435619244e-04
O -4.788035080000e-02 -1.287797512000e-01  6.855849720000e-02  5.036772412824e-05 -1.987697292593e-04  1.132565157702e-04
H -7.674702133000e-01  3.866755978000e-01 -2.130111761000e-01 -3.029687009704e-04  1.863625265328e-03 -1.052004905439e-03
3
step 1994
H  6.540963542000e-01  3.074435079000e-01 -1.821293018000e-01 -1.174569119396e-04  1.589282879719e-03 -9.003209701187e-04
O -4.771609760000e-02 -1.297042333000e-01  6.908529340000e-02  2.444853664257e-05 -2.225946998516e-04  1.268668183330e-04
H -7.691090528000e-01  3.950099180000e-01 -2.177119822000e-01 -4.311650716262e-04  1.933082872344e-03 -1.089657247615e-03
3
step 1995
H  6.547391360000e-01  3.150596769000e-01 -1.864501194000e-01  3.904867174566e-04  1.879452672325e-03 -1.067491921627e-03
O -4.766640730000e-02 -1.307276251000e-01  6.966867890000e-02 -1.383988706063e-06 -2.435810432090e-04  1.388930034021e-04
H -7.712432375000e-01  4.035915518000e-01 -2.225465107000e-01 -5.291571803164e-04  1.976540645211e-03 -1.113054772152e-03
3
step 1996
H  6.575134118000e-01  3.238901566000e-01 -1.914706728000e-01  8.490035507408e-04  2.139148356846e-03 -1.217183112324e-03
O -4.772820860000e-02 -1.318357538000e-01  7.030071340000e-02 -2.600435032522e-05 -2.610144857835e-04  1.489232167021e-04
H -7.737395830000e-01  4.123061608000e-01 -2.274520630000e-01 -5.969589915342e-04  1.994078970044e-03 -1.122236127100e-03
3
step 1997
H  6.621685666000e-01  3.337788615000e-01 -1.971014028000e-01  1.244969921659e-03  2.359384382927e-03 -1.344229924063e-03
O -4.789396530000e-02 -1.330117016000e-01  7.097187100000e-02 -4.853060018464e-05 -2.743740994080e-04  1.566557200439e-04
H -7.764670854000e-01  4.210412684000e-01 -2.323669354000e-01 -6.354507071770e-04  1.986399641481e-03 -1.117579926212e-03
3
step 1998
H  6.684078511000e-01  3.445365750000e-01 -2.032337131000e-01  1.570426247294e-03  2.534127463228e-03 -1.445166529588e-03
O -4.815288850000e-02 -1.342367371000e-01  7.167157080000e-02 -6.836408891259e-05 -2.833552661451e-04  1.619122798683e-04
H -7.793002629000e-01  4.296886773000e-01 -2.372317423000e-01 -6.461788845938e-04  1.954688873522e-03 -1.099730236603e-03
3
step 1999
H  6.759109977000e-01  3.559544156000e-01 -2.097477156000e-01  1.822265585587e-03  2.660327496432e-03 -1.518242375674e-03
O -4.849220340000e-02 -1.354912769000e-01  7.238872730000e-02 -8.518132479337e-05 -2.878630000141e-04  1.646346246989e-04
H -7.821216450000e-01  4.381462915000e-01 -2.419904163000e-01 -6.311707156812e-04  1.900487354313e-03 -1.069525732373e-03
3
step 2000
H  6.843540691000e-01  3.678164759000e-01 -2.165194954000e-01  2.001415969680e-03  2.737577601544e-03 -1.563225747723e-03
O -4.889829020000e-02 -1.367557586000e-01  7.311224970000e-02 -9.889262423984e-05 -2.879830489462e-04  1.648681585657e-04
H -7.848234895000e-01  4.463193957000e-01 -2.465909108000e-01 -5.927712114046e-04  1.825574644833e-03 -1.027936564126e-03
3
step 2001
H  6.934249186000e-01  3.799103140000e-01 -2.234271368000e-01  2.111789226689e-03  2.767556575779e-03 -1.581082353298e-03
O -4.935758950000e-02 -1.380113490000e-01  7.383144980000e-02 -1.095845122582e-04 -2.839411303489e-04  1.627387950310e-04
H -7.873088466000e-01  4.541214663000e-01 -2.509856476000e-01 -5.335089643922e-04  1.731872524479e-03 -9.760115498725e-04
3
step 2002
H  7.028338404000e-01  3.920347133000e-01 -2.303551756000e-01  2.159230555257e-03  2.753406512410e-03 -1.573617140872e-03
O -4.985723860000e-02 -1.392404607000e-01  7.453633870000e-02 -1.174603904926e-04 -2.760597531667e-04  1.584282187808e-04
H -7.894921011000e-01  4.614746052000e-01 -2.551317585000e-01 -4.559917146378e-04  1.621369934778e-03 -9.148370860536e-04
3
step 2003
H  7.123198379000e-01  4.040047275000e-01 -2.371974907000e-01  2.150616250158e-03  2.699156604289e-03 -1.543143412181e-03
O -5.038545780000e-02 -1.404270830000e-01  7.521781790000e-02 -1.227888845989e-04 -2.647189298877e-04  1.521512727447e-04
H -7.912991229000e-01  4.683096937000e-01 -2.589911721000e-01 -3.628284271712e-04  1.496066984280e-03 -8.455063982265e-04
3
step 2004
H  7.216533779000e-01  4.156543985000e-01 -2.438588610000e-01  2.093160473769e-03  2.609251230826e-03 -1.492212217320e-03
O -5.093173520000e-02 -1.415569538000e-01  7.586777880000e-02 -1.258635094852e-04 -2.503240239262e-04  1.441374225737e-04
H -7.926671274000e-01  4.745663359000e-01 -2.625305864000e-01 -2.565766703727e-04  1.357937246714e-03 -7.690989440093e-04
3
step 2005
H  7.306365935000e-01  4.268376720000e-01 -2.502554892000e-01  1.993931586359e-03  2.488198221880e-03 -1.423410754077e-03
O -5.148685980000e-02 -1.426176097000e-01  7.647913070000e-02 -1.269738855430e-04 -2.332817791475e-04  1.346169429912e-04
H -7.935443651000e-01  4.801926835000e-01 -2.657213762000e-01 -1.397133705309e-04  1.208907227921e-03 -6.866691043557e-04
3
step 2006
H  7.391018048000e-01  4.374280366000e-01 -2.563147941000e-01  1.859547130469e-03  2.340329518692e-03 -1.339225122797e-03
O -5.204285390000e-02 -1.435983479000e-01  7.704578000000e-02 -1.263871894119e-04 -2.139840241494e-04  1.238115974644e-04
H -7.938897263000e-01  4.851451991000e-01 -2.685394664000e-01 -1.462092505676e-05  1.050846716419e-03 -5.992408857325e-04
3
step 2007
H  7.469090535000e-01  4.473173457000e-01 -2.619747336000e-01  1.696008688783e-03  2.169656002571e-03 -1.241957087941e-03
O -5.259284440000e-02 -1.444901336000e-01  7.756257680000e-02 -1.243377503176e-04 -1.927981050990e-04  1.119292169646e-04
H -7.936723094000e-01  4.893883962000e-01 -2.709651924000e-01  1.164153207248e-04  8.855673252376e-04 -5.078071019048e-04
3
step 2008
H  7.539431783000e-01  4.564141865000e-01 -2.671828688000e-01  1.508641075729e-03  1.979796383405e-03 -1.133683309080e-03
O -5.313090430000e-02 -1.452854788000e-01  7.802524620000e-02 -1.210226298875e-04 -1.700629363634e-04  9.916141902364e-05
H -7.928710032000e-01  4.928945906000e-01 -2.729831670000e-01  2.511972595754e-04  7.148302306760e-04 -4.133336158517e-04
3
step 2009
H  7.601108171000e-01  4.646420787000e-01 -2.718953299000e-01  1.302102773139e-03  1.773959569194e-03 -1.016245325771e-03
O -5.365188500000e-02 -1.459783144000e-01  7.843031510000e-02 -1.166012107573e-04 -1.460889045185e-04  8.568362601782e-05
H -7.914741412000e-01  4.956437076000e-01 -2.745821778000e-01  3.875965015894e-04  5.403596202663e-04 -3.167666945511e-04
3
step 2010
H  7.653375738000e-01  4.719376899000e-01 -2.760757928000e-01  1.080439260441e-03  1.554962319373e-03 -8.912597783785e-04
O -5.415125410000e-02 -1.465638685000e-01  7.877504350000e-02 -1.111973358133e-04 -1.211602361417e-04  7.165635419821e-05
H -7.894792372000e-01  4.976231507000e-01 -2.757551180000e-01  5.235339051269e-04  3.638585222483e-04 -2.190416573669e-04
3
step 2011
H  7.695654872000e-01  4.782491887000e-01 -2.796945348000e-01  8.471598993679e-04  1.325267943135e-03 -7.601407055532e-04
O -5.462494680000e-02 -1.470385592000e-01  7.905736310000e-02 -1.049026221878e-04 -9.553880090794e-05  5.722735750317e-05
H -7.868928190000e-01  4.988277480000e-01 -2.764989599000e-01  6.569545687141e-04  1.870279078984e-04 -1.210933482757e-04
3
step 2012
H  7.727508710000e-01  4.835347983000e-01 -2.827276055000e-01  6.053241892710e-04  1.087036132790e-03 -6.241282411500e-04
O -5.506923240000e-02 -1.473999061000e-01  7.927582670000e-02 -9.778035120505e-05 -6.946854091692e-05  4.253413705323e-05
H -7.837303822000e-01  4.992597880000e-01 -2.768147774000e-01  7.858028823676e-04  1.158598127239e-05 -2.386671322824e-05
3
step 2013
H  7.748625370000e-01  4.877615865000e-01 -2.851561344000e-01  3.576283378379e-04  8.421767282113e-04 -4.843194503907e-04
O -5.548059970000e-02 -1.476464621000e-01  7.942956930000e-02 -8.986934918448e-05 -4.318000058254e-05  2.770652835345e-05
H -7.800164426000e-01  4.989291342000e-01 -2.767078118000e-01  9.079982051499e-04 -1.607134361171e-04  7.167315272944e-05
3
step 2014
H  7.758803925000e-01  4.909044890000e-01 -2.869657713000e-01  1.064923026237e-04  5.924068912587e-04 -3.417011132823e-04
O -5.585565790000e-02 -1.477777642000e-01  7.951828000000e-02 -8.118814707733e-05 -1.689497994042e-05  1.286932963502e-05
H -7.757847032000e-01  4.978534225000e-01 -2.761875825000e-01  1.021413518464e-03 -3.280641981893e-04  1.645318176877e-04
3
step 2015
H  7.757944261000e-01  4.929456000000e-01 -2.881462805000e-01 -1.458576470241e-04  3.393074665694e-04 -1.971820463632e-04
O -5.619105810000e-02 -1.477943060000e-01  7.954218580000e-02 -7.173900297186e-05  9.169127445697e-06 -1.855216076009e-06
H -7.710782929000e-01  4.960583215000e-01 -2.752680326000e-01  1.123857292783e-03 -4.885946240220e-04  2.536782632217e-04
3
step 2016
H  7.746040265000e-01  4.938736889000e-01 -2.886912650000e-01 -3.973115698725e-04  8.437738137140e-05 -5.162426797737e-05
O -5.648342910000e-02 -1.476975273000e-01  7.950204550000e-02 -6.151201144845e-05  3.479544453831e-05 -1.634516744151e-05
H -7.659500921000e-01  4.935778457000e-01 -2.739677036000e-01  1.213061113872e-03 -6.403600242195e-04  3.380407430389e-04
3
step 2017
H  7.723176459000e-01  4.936839666000e-01 -2.885980324000e-01 -6.457986161281e-04 -1.709101994263e-04  9.412474397373e-05
O -5.672933520000e-02 -1.474898193000e-01  7.939915310000e-02 -5.048986659165e-05  5.976421455174e-05 -3.047690555575e-05
H -7.604630801000e-01  4.904546814000e-01 -2.723099174000e-01  1.286678764014e-03 -7.813443556248e-04  4.165076011933e-04
3
step 2018
H  7.689527946000e-01  4.923780939000e-01 -2.878676015000e-01 -8.892126065146e-04 -4.250521889596e-04  2.392001462501e-04
O -5.692525410000e-02 -1.471745447000e-01  7.923534920000e-02 -3.865319180992e-05  8.385004005060e-05 -4.412352037217e-05
H -7.546906685000e-01  4.867404848000e-01 -2.703229434000e-01  1.342296195994e-03 -9.094724671059e-04  4.879338863646e-04
3
step 2019
H  7.645363553000e-01  4.899644348000e-01 -2.865048481000e-01 -1.125338365572e-03 -6.764590896337e-04  3.826872988226e-04
O -5.706758020000e-02 -1.467560673000e-01  7.901303850000e-02 -2.598681128731e-05  1.068200362542e-04 -5.715369994337e-05
H -7.487169614000e-01  4.824961015000e-01 -2.680401226000e-01  1.377457994786e-03 -1.022636789794e-03  5.511560248606e-04
3
step 2020
H  7.591052229000e-01  4.864585594000e-01 -2.845187948000e-01 -1.351777456149e-03 -9.233968313517e-04  5.235884329307e-04
O -5.715265860000e-02 -1.462397876000e-01  7.873521060000e-02 -1.248741559888e-05  1.284329991092e-04 -6.943121389487e-05
H -7.426368573000e-01  4.777916306000e-01 -2.654999065000e-01  1.389714468292e-03 -1.118742169735e-03  6.050165361705e-04
3
step 2021
H  7.527072684000e-01  4.818840060000e-01 -2.819230488000e-01 -1.565873054543e-03 -1.163926941317e-03  6.607882678026e-04
O -5.717685470000e-02 -1.456321803000e-01  7.840546230000e-02  1.827236808074e-06  1.484398029691e-04 -8.081508712417e-05
H -7.365558966000e-01  4.727062516000e-01 -2.627457651000e-01  1.376692955391e-03 -1.195771434727e-03  6.484003132217e-04
3
step 2022
H  7.454026357000e-01  4.762733082000e-01 -2.787363920000e-01 -1.764633993713e-03 -1.395845246536e-03  7.930188228747e-04
O -5.713666890000e-02 -1.449408258000e-01  7.802801680000e-02  1.690728972126e-05  1.665851421566e-04 -9.116056428786e-05
H -7.305897407000e-01  4.673277157000e-01 -2.598259077000e-01  1.336196372757e-03 -1.251873720315e-03  6.802836420934e-04
3
step 2023
H  7.372653709000e-01  4.696692923000e-01 -2.749835274000e-01 -1.944659428155e-03 -1.616620548894e-03  9.188241614461e-04
O -5.702890290000e-02 -1.441744328000e-01  7.760773760000e-02  3.265798114043e-05  1.826107123990e-04 -1.003208742188e-04
H -7.248631561000e-01  4.617513988000e-01 -2.567927627000e-01  1.266330778556e-03 -1.285475810908e-03  6.997957874892e-04
3
step 2024
H  7.283853780000e-01  4.621266416000e-01 -2.706959776000e-01 -2.102067896097e-03 -1.823336765072e-03  1.036526999312e-03
O -5.685088660000e-02 -1.433428424000e-01  7.715013240000e-02  4.892532224379e-05  1.962598549944e-04 -1.081497028527e-04
H -7.195083776000e-01  4.560788189000e-01 -2.537021592000e-01  1.165660696013e-03 -1.295413762560e-03  7.062917178071e-04
3
step 2025
H  7.188706687000e-01  4.537137006000e-01 -2.659131231000e-01 -2.232438270956e-03 -2.012644752470e-03  1.144200848913e-03
O -5.660076890000e-02 -1.424570089000e-01  7.666134490000e-02  6.548111812627e-05  2.072835905693e-04 -1.145044478008e-04
H -7.146627332000e-01  4.504155373000e-01 -2.506121699000e-01  1.033386981286e-03 -1.281077905150e-03  6.994320570060e-04
3
step 2026
H  7.088498352000e-01  4.445144602000e-01 -2.606833448000e-01 -2.330775309487e-03 -2.180734279663e-03  1.239653618486e-03
O -5.627787670000e-02 -1.415289524000e-01  7.614813090000e-02  8.200875189966e-05  2.154478915856e-04 -1.192500900113e-04
H -7.104654509000e-01  4.448684071000e-01 -2.475815936000e-01  8.695362789025e-04 -1.242559266147e-03  6.792637129845e-04
3
step 2027
H  6.984746016000e-01  4.346306073000e-01 -2.550652055000e-01 -2.391518295603e-03 -2.323340649818e-03  1.320431296310e-03
O -5.588312960000e-02 -1.405716751000e-01  7.561781540000e-02  9.809217765498e-05  2.205422073101e-04 -1.222637373720e-04
H -7.070536255000e-01  4.395421931000e-01 -2.446680927000e-01  6.751444617202e-04 -1.180779835794e-03  6.462915330302e-04
3
step 2028
H  6.879222204000e-01  4.241834520000e-01 -2.491285608000e-01 -2.408616517202e-03 -2.435804832579e-03  1.383852269992e-03
O -5.541949510000e-02 -1.395990394000e-01  7.507822960000e-02  1.132110751718e-04  2.223889578405e-04 -1.234398631096e-04
H -7.045574203000e-01  4.345356802000e-01 -2.419260482000e-01  4.524098152476e-04 -1.097584645916e-03  6.015289325356e-04
3
step 2029
H  6.773973643000e-01  4.133154515000e-01 -2.429554395000e-01 -2.375700382633e-03 -2.513209849861e-03  1.427085358505e-03
O -5.489244610000e-02 -1.386256015000e-01  7.453762220000e-02  1.267458414819e-04  2.208542623114e-04 -1.226963258346e-04
H -7.030946935000e-01  4.299374878000e-01 -2.394042543000e-01  2.047872785471e-04 -9.957720255557e-04  5.465143507026e-04
3
step 2030
H  6.671330245000e-01  4.021909431000e-01 -2.366404721000e-01 -2.286380969365e-03 -2.550617216884e-03  1.447285279194e-03
O -5.431037200000e-02 -1.376663956000e-01  7.400454290000e-02  1.379962086700e-04  2.158599744126e-04 -1.199814043550e-04
H -7.027653750000e-01  4.258219132000e-01 -2.371436295000e-01 -6.300361131702e-05 -8.790423871702e-04  4.832827867450e-04
3
step 2031
H  6.573897816000e-01  3.909955995000e-01 -2.302905860000e-01 -2.134711958454e-03 -2.543425319989e-03  1.441798613774e-03
O -5.368487370000e-02 -1.367366616000e-01  7.348769310000e-02  1.462167790522e-04  2.073976331694e-04 -1.152821443748e-04
H -7.036460233000e-01  4.222451944000e-01 -2.351751602000e-01 -3.450781071598e-04 -7.518550117222e-04  4.142865153926e-04
3
step 2032
H  6.484526617000e-01  3.799340257000e-01 -2.240236312000e-01 -1.915839036048e-03 -2.487862347247e-03  1.408447372106e-03
O -5.303086330000e-02 -1.358515076000e-01  7.299573590000e-02  1.506714478466e-04  1.955450054968e-04 -1.086343096243e-04
H -7.057850724000e-01  4.192426066000e-01 -2.335183056000e-01 -6.346016202736e-04 -6.191962609462e-04  3.422670020899e-04
3
step 2033
H  6.406247244000e-01  3.692249006000e-01 -2.179655940000e-01 -1.626832680003e-03 -2.381600749024e-03  1.345882693839e-03
O -5.236638320000e-02 -1.350254932000e-01  7.253705980000e-02  1.507059225466e-04  1.804854947876e-04 -1.001340471253e-04
H -7.091992730000e-01  4.168267534000e-01 -2.321800621000e-01 -9.241108534931e-04 -4.862796767138e-04  2.700893311870e-04
3
step 2034
H  6.342166312000e-01  3.590931971000e-01 -2.122461280000e-01 -1.267645694445e-03 -2.224437109961e-03  1.253976974132e-03
O -5.171207120000e-02 -1.342721215000e-01  7.211948640000e-02  1.458328811895e-04  1.625293322024e-04 -8.995064493358e-05
H -7.138717494000e-01  4.149872874000e-01 -2.311548173000e-01 -1.205912454339e-03 -3.582125610424e-04  2.005583408731e-04
3
step 2035
H  6.295318547000e-01  3.497593741000e-01 -2.069923361000e-01 -8.420585351169e-04 -2.018924134865e-03  1.134189833935e-03
O -5.109023400000e-02 -1.336032372000e-01  7.174992280000e-02  1.358185750700e-04  1.421324550197e-04 -7.833805113090e-05
H -7.197519295000e-01  4.136921194000e-01 -2.304250232000e-01 -1.472515027531e-03 -2.396719907089e-04  1.362401473530e-04
3
step 2036
H  6.268479748000e-01  3.414260663000e-01 -2.023210992000e-01 -3.584002931995e-04 -1.770794140819e-03  9.898154035123e-04
O -5.052355480000e-02 -1.330283538000e-01  7.143396850000e-02  1.207544841898e-04  1.199059915201e-04 -6.564095786506e-05
H -7.267573824000e-01  4.128899741000e-01 -2.299626117000e-01 -1.717044079280e-03 -1.346319633921e-04  7.931215110391e-05
3
step 2037
H  6.263955780000e-01  3.342635706000e-01 -1.983306941000e-01  1.702091910043e-04 -1.488997531536e-03  8.260086104324e-04
O -5.003353990000e-02 -1.325539681000e-01  7.117551420000e-02  1.010946488500e-04  9.660705493436e-05 -5.229008861888e-05
H -7.347773789000e-01  4.125139867000e-01 -2.297309812000e-01 -1.933590229126e-03 -4.617278576730e-05  3.145855686851e-05
3
step 2038
H  6.283374354000e-01  3.283961987000e-01 -1.950928919000e-01  7.263011134405e-04 -1.185241429698e-03  6.495231270491e-04
O -4.963889920000e-02 -1.321829681000e-01  7.097639030000e-02  7.764375755033e-05  7.310422303324e-05 -3.878272562707e-05
H -7.436777762000e-01  4.124859269000e-01 -2.296873253000e-01 -2.117459903449e-03  2.361128413296e-05 -6.179807100843e-06
3
step 2039
H  6.327512684000e-01  3.238918013000e-01 -1.926468698000e-01  1.289268416446e-03 -8.730109556677e-04  4.681499887293e-04
O -4.935409760000e-02 -1.319142502000e-01  7.083613570000e-02  5.148895180866e-05  5.031637318951e-05 -2.564766379761e-05
H -7.533067730000e-01  4.127206035000e-01 -2.297850592000e-01 -2.265303379129e-03  7.360744760553e-05 -3.300224818250e-05
3
step 2040
H  6.396195204000e-01  3.207566850000e-01 -1.909962213000e-01  1.837210953133e-03 -5.662210756569e-04  2.899411360278e-04
O -4.918833150000e-02 -1.317426614000e-01  7.075195360000e-02  2.388446710451e-05  2.913284021616e-05 -1.339913016937e-05
H -7.635009138000e-01  4.131300484000e-01 -2.299761202000e-01 -2.375129026875e-03  1.036027449847e-04 -4.890254480675e-05
3
step 2041
H  6.488282698000e-01  3.189369337000e-01 -1.901096630000e-01  2.349064864636e-03 -2.777796622161e-04  1.223789455846e-04
O -4.914509020000e-02 -1.316593155000e-01  7.071888310000e-02 -3.887733221234e-06  1.033129783203e-05 -2.489144648844e-06
H -7.740909691000e-01  4.136272068000e-01 -2.302129939000e-01 -2.446221704643e-03  1.141479761116e-04 -5.419341020310e-05
3
step 2042
H  6.601756351000e-01  3.183259004000e-01 -1.899253119000e-01  2.806578009677e-03 -1.836359667565e-05 -2.833379693717e-05
O -4.922235220000e-02 -1.316522546000e-01  7.073017170000e-02 -3.065234621620e-05 -5.489024070472e-06  6.731502863655e-06
H -7.849072252000e-01  4.141289306000e-01 -2.304503540000e-01 -2.478984892585e-03  1.063930153048e-04 -4.951531408677e-05
3
step 2043
H  6.733879745000e-01  3.187762382000e-01 -1.903576054000e-01  3.195737611170e-03  2.043512069605e-04 -1.577235078254e-04
O -4.941332170000e-02 -1.317073487000e-01  7.077778880000e-02 -5.544277753685e-05 -1.794518297369e-05  1.403573279412e-05
H -7.957839835000e-01  4.145582271000e-01 -2.306462908000e-01 -2.474746940842e-03  8.191976767995e-05 -3.574424386633e-05
3
step 2044
H  6.881407841000e-01  3.201141298000e-01 -1.913055133000e-01  3.507444167579e-03  3.859234821546e-04 -2.631856148093e-04
O -4.970751890000e-02 -1.318092887000e-01  7.085299510000e-02 -7.755663831040e-05 -2.687518161318e-05  1.932348074876e-05
H -8.065631542000e-01  4.148457912000e-01 -2.307631435000e-01 -2.435553371137e-03  4.258785578494e-05 -1.390683892102e-05
3
step 2045
H  7.040807943000e-01  3.221533639000e-01 -1.926606809000e-01  3.737444455356e-03  5.249078741376e-04 -3.438506533386e-04
O -5.009200160000e-02 -1.319425271000e-01  7.094688410000e-02 -9.656410097573e-05 -3.231433118726e-05  2.260859694517e-05
H -8.170969388000e-01  4.149309034000e-01 -2.307679863000e-01 -2.363967314792e-03 -9.596184963322e-06  1.489144768949e-05
3
step 2046
H  7.208462825000e-01  3.247074753000e-01 -1.943144696000e-01  3.885704671742e-03  6.223021333861e-04 -4.002682942103e-04
O -5.055252860000e-02 -1.320920638000e-01  7.105083760000e-02 -1.122796228985e-04 -3.445405267342e-05  2.399545168636e-05
H -8.272496768000e-01  4.147618172000e-01 -2.306328319000e-01 -2.262893157865e-03 -7.258122418990e-05  4.952234432923e-05
3
step 2047
H  7.380836830000e-01  3.275989836000e-01 -1.961633347000e-01  3.955474118921e-03  6.808614612864e-04 -4.340134397237e-04
O -5.107453420000e-02 -1.322440264000e-01  7.115686260000e-02 -1.247123827047e-04 -3.359441583525e-05  2.365171945466e-05
H -8.368989851000e-01  4.142957622000e-01 -2.303346279000e-01 -2.135428659218e-03 -1.443468991154e-04  8.887584519377e-05
3
step 2048
H  7.554597071000e-01  3.306655340000e-01 -1.981124192000e-01  3.952272524564e-03  7.044285481408e-04 -4.472991489528e-04
O -5.164385740000e-02 -1.323860406000e-01  7.125780820000e-02 -1.340097046561e-04 -3.009941627559e-05  2.178270801341e-05
H -8.459363113000e-01  4.134986714000e-01 -2.298551003000e-01 -1.984750665658e-03 -2.229528171113e-04  1.318870468209e-04
3
step 2049
H  7.726690913000e-01  3.337632724000e-01 -2.000775444000e-01  3.882966680279e-03  6.973700658664e-04 -4.426492058035e-04
O -5.224722160000e-02 -1.325074193000e-01  7.134747800000e-02 -1.404039570071e-04 -2.436011923044e-05  1.861007569633e-05
H -8.542670719000e-01  4.123447545000e-01 -2.291805153000e-01 -1.814033797900e-03 -3.065655796224e-04  1.775507068176e-04
3
step 2050
H  7.894386362000e-01  3.367680556000e-01 -2.019859384000e-01  3.755021963049e-03  6.641540900854e-04 -4.226518548314e-04
O -5.287249940000e-02 -1.325992103000e-01  7.142066060000e-02 -1.441688255423e-04 -1.676710540676e-05  1.435608421296e-05
H -8.618104948000e-01  4.108159881000e-01 -2.283013958000e-01 -1.626396279302e-03 -3.934699674750e-04  2.249272319081e-04
3
step 2051
H  8.055284062000e-01  3.395751288000e-01 -2.037760715000e-01  3.575950826884e-03  6.090643331109e-04 -3.897933426528e-04
O -5.350880910000e-02 -1.326541443000e-01  7.147310470000e-02 -1.455864387370e-04 -7.692072591102e-06  9.233094424211e-06
H -8.684992836000e-01  4.089015913000e-01 -2.272122300000e-01 -1.424870429880e-03 -4.820672633093e-04  2.731414894662e-04
3
step 2052
H  8.207309418000e-01  3.420978344000e-01 -2.053969284000e-01  3.352942458058e-03  5.360293885918e-04 -3.463583700779e-04
O -5.414649220000e-02 -1.326665218000e-01  7.150145730000e-02 -1.449247228795e-04  2.522746282334e-06  3.437436592650e-06
H -8.742792012000e-01  4.065975307000e-01 -2.259111987000e-01 -1.212392536900e-03 -5.708648707723e-04  3.213769657406e-04
3
step 2053
H  8.348692179000e-01  3.442657960000e-01 -2.068069722000e-01  3.092642369240e-03  4.485399684625e-04 -2.943808529866e-04
O -5.477701130000e-02 -1.326320684000e-01  7.150318490000e-02 -1.424231770292e-04  1.356895303530e-05 -2.853409942384e-06
H -8.791086459000e-01  4.039060869000e-01 -2.243999356000e-01 -9.918072156451e-04 -6.584605353265e-04  3.688669346265e-04
3
step 2054
H  8.477939285000e-01  3.460229023000e-01 -2.079729860000e-01  2.801047663506e-03  3.496284064499e-04 -2.356304195098e-04
O -5.539280390000e-02 -1.325477831000e-01  7.147648780000e-02 -1.382853216772e-04  2.517199795859e-05 -9.481182447069e-06
H -8.829582731000e-01  4.008354973000e-01 -2.226833309000e-01 -7.658822972549e-04 -7.435236624544e-04  4.148840448623e-04
3
step 2055
H  8.593805279000e-01  3.473253121000e-01 -2.088689187000e-01  2.483486053315e-03  2.418888300238e-04 -1.716230605263e-04
O -5.598711370000e-02 -1.324117941000e-01  7.142021730000e-02 -1.326759744129e-04  3.708843719473e-05 -1.630558233119e-05
H -8.858107019000e-01  3.973996860000e-01 -2.207693828000e-01 -5.373307148111e-04 -8.247755936691e-04  4.587294089835e-04
3
step 2056
H  8.695263315000e-01  3.481396146000e-01 -2.094748191000e-01  2.144650851739e-03  1.275210468452e-04 -1.036462108986e-04
O -5.655382020000e-02 -1.322232309000e-01  7.133380140000e-02 -1.257218578705e-04  4.910175024648e-05 -2.320203077292e-05
H -8.876603280000e-01  3.936180799000e-01 -2.186690976000e-01 -3.088358679782e-04 -9.009705498945e-04  4.997219939642e-04
3
step 2057
H  8.781478637000e-01  3.484412188000e-01 -2.097759023000e-01  1.788670474955e-03  8.386215327720e-06 -3.279105750498e-05
O -5.708727610000e-02 -1.319821162000e-01  7.121718180000e-02 -1.175142235000e-04  6.101761810400e-05 -3.005895809874e-05
H -8.885132520000e-01  3.895155044000e-01 -2.163964331000e-01 -8.307910859938e-05 -9.708778638761e-04  5.371888392159e-04
3
step 2058
H  8.851785666000e-01  3.482130004000e-01 -2.097617659000e-01  1.419196585398e-03 -1.139335262904e-04  4.001287635529e-05
O -5.758215960000e-02 -1.316892800000e-01  7.107076260000e-02 -1.081128695018e-04  7.265921508510e-05 -3.677507945012e-05
H -8.883873337000e-01  3.851221558000e-01 -2.139682843000e-01  1.372353837637e-04 -1.033267695716e-03  5.704571487070e-04
3
step 2059
H  8.905669195000e-01  3.474442132000e-01 -2.094257590000e-01  1.039498945176e-03 -2.380764319299e-04  1.139637590756e-04
O -5.803334650000e-02 -1.313462925000e-01  7.089537170000e-02 -9.755078499132e-05  8.386282521845e-05 -4.325680301022e-05
H -8.873123374000e-01  3.804736216000e-01 -2.114044966000e-01  3.493598173624e-04 -1.086900030405e-03  5.988482480625e-04
3
step 2060
H  8.942749776000e-01  3.461296495000e-01 -2.087644959000e-01  6.525678391223e-04 -3.628437675442e-04  1.883541279412e-04
O -5.843580360000e-02 -1.309554162000e-01  7.069223240000e-02 -8.583985921481e-05  9.447400257937e-05 -4.941599934173e-05
H -8.853301681000e-01  3.756109490000e-01 -2.087279040000e-01  5.504909401547e-04 -1.130520984433e-03  6.216755458857e-04
3
step 2061
H  8.962773874000e-01  3.442690527000e-01 -2.077775163000e-01  2.612164566957e-04 -4.871444605305e-04  2.625387365116e-04
O -5.878451090000e-02 -1.305195727000e-01  7.046294390000e-02 -7.297697015951e-05  1.043440744527e-04 -5.516789414254e-05
H -8.824951206000e-01  3.705806981000e-01 -2.059643600000e-01  7.377645271438e-04 -1.162861731596e-03  6.382439532369e-04
3
step 2062
H  8.965608214000e-01  3.418667628000e-01 -2.064670811000e-01 -1.318166712598e-04 -6.099433099724e-04  3.359042806963e-04
O -5.907440790000e-02 -1.300423257000e-01  7.020947110000e-02 -5.895126163179e-05  1.133275358463e-04 -6.042957351933e-05
H -8.788741640000e-01  3.654350192000e-01 -2.031427811000e-01  9.082681701171e-04 -1.182649276912e-03  6.478558259715e-04
3
step 2063
H  8.951238907000e-01  3.389315821000e-01 -2.048380969000e-01 -5.237606373027e-04 -7.302094162918e-04  4.078391933961e-04
O -5.930037950000e-02 -1.295278701000e-01  6.993413890000e-02 -4.375294705874e-05  1.212802667897e-04 -6.511884580133e-05
H -8.745470792000e-01  3.602316122000e-01 -2.002951259000e-01  1.059074056495e-03 -1.188628872947e-03  6.498233065174e-04
3
step 2064
H  8.919775152000e-01  3.354768718000e-01 -2.028981761000e-01 -9.117043542479e-04 -8.468637652602e-04  4.777029180461e-04
O -5.945727960000e-02 -1.289810306000e-01  6.963963140000e-02 -2.738316919759e-05  1.280580696052e-04 -6.915335018972e-05
H -8.696064558000e-01  3.550336072000e-01 -1.974563300000e-01  1.187287975331e-03 -1.179592639025e-03  6.434840893545e-04
3
step 2065
H  8.871457801000e-01  3.315208763000e-01 -2.006578309000e-01 -1.292483481625e-03 -9.587259480859e-04  5.447945559289e-04
O -5.954000320000e-02 -1.284072640000e-01  6.932899420000e-02 -9.866113362294e-06  1.335162300885e-04 -7.245016364910e-05
H -8.641574011000e-01  3.499092741000e-01 -1.946641478000e-01  1.290128003003e-03 -1.154424946976e-03  6.282264108290e-04
3
step 2066
H  8.806672959000e-01  3.270872862000e-01 -1.981308070000e-01 -1.662562410852e-03 -1.064458180023e-03  6.083199319115e-04
O -5.954361570000e-02 -1.278126614000e-01  6.900563700000e-02  8.736927520552e-06  1.375097323476e-04 -7.492578719444e-05
H -8.583168487000e-01  3.449315057000e-01 -1.919588683000e-01  1.365030103126e-03 -1.112161021725e-03  6.035213251891e-04
3
step 2067
H  8.725970870000e-01  3.222060528000e-01 -1.953345661000e-01 -2.017911441694e-03 -1.162506073550e-03  6.673567037810e-04
O -5.946354840000e-02 -1.272039486000e-01  6.867333620000e-02  2.831137604038e-05  1.398941547242e-04 -7.649645215000e-05
H -8.522123434000e-01  3.401770143000e-01 -1.893828745000e-01  1.409781998271e-03 -1.052059204691e-03  5.689625548145e-04
3
step 2068
H  8.630090270000e-01  3.169144687000e-01 -1.922909252000e-01 -2.353881938316e-03 -1.251036646075e-03  7.208178351534e-04
O -5.929586950000e-02 -1.265884805000e-01  6.833623460000e-02  4.867148843759e-05  1.405270411024e-04 -7.707866867282e-05
H -8.459801777000e-01  3.357251828000e-01 -1.869800107000e-01  1.422681926373e-03 -9.736844984797e-04  5.243126073273e-04
3
step 2069
H  8.519988192000e-01  3.112585251000e-01 -1.890268586000e-01 -2.665085434710e-03 -1.327875386012e-03  7.674144467209e-04
O -5.903763560000e-02 -1.259742295000e-01  6.799883890000e-02  6.954170937662e-05  1.392695921896e-04 -7.658993426216e-05
H -8.397627881000e-01  3.316565300000e-01 -1.847947380000e-01  1.402713601434e-03 -8.769985704416e-04  4.695525038155e-04
3
step 2070
H  8.396874905000e-01  3.052945432000e-01 -1.855754617000e-01 -2.945288153639e-03 -1.390446783691e-03  8.056206376140e-04
O -5.868732630000e-02 -1.253697651000e-01  6.766601400000e-02  9.053878550986e-05  1.359883979360e-04 -7.494955197372e-05
H -8.337053605000e-01  3.280507744000e-01 -1.828710671000e-01  1.349724579641e-03 -7.624492259948e-04  4.049312876471e-04
3
step 2071
H  8.262252946000e-01  2.990910520000e-01 -1.819770617000e-01 -3.187341101885e-03 -1.435726929791e-03  8.336454147130e-04
O -5.824535200000e-02 -1.247842269000e-01  6.734297300000e-02  1.111573347394e-04  1.305571608129e-04 -7.207943949171e-05
H -8.279516654000e-01  3.249845160000e-01 -1.812512794000e-01  1.264585418018e-03 -6.310473710372e-04  3.310087361639e-04
3
step 2072
H  8.117958174000e-01  2.927308342000e-01 -1.782804266000e-01 -3.383174813567e-03 -1.460220134528e-03  8.494189704188e-04
O -5.771461460000e-02 -1.242272900000e-01  6.703526380000e-02  1.307618423453e-04  1.228584510879e-04 -6.790531302539e-05
H -8.226392707000e-01  3.225286271000e-01 -1.799744874000e-01  1.149311944885e-03 -4.844221294130e-04  2.486859865756e-04
3
step 2073
H  7.966199267000e-01  2.863130086000e-01 -1.745439958000e-01 -3.523896374805e-03 -1.459977175200e-03  8.506039136711e-04
O -5.710108590000e-02 -1.237091215000e-01  6.674874960000e-02  1.485894401714e-04  1.127858506368e-04 -6.235814089620e-05
H -8.178943066000e-01  3.207454518000e-01 -1.790750868000e-01  1.007119042579e-03 -3.248374494610e-04  1.592149888472e-04
3
step 2074
H  7.809590281000e-01  2.799549169000e-01 -1.708369916000e-01 -3.600036963212e-03 -1.430678539194e-03  8.346448976095e-04
O -5.641434330000e-02 -1.232403276000e-01  6.648958240000e-02  1.637680124706e-04  1.002472806534e-04 -5.537645190742e-05
H -8.138262085000e-01  3.196860509000e-01 -1.785812344000e-01  8.423831330216e-04 -1.551587812136e-04  6.418042270894e-05
3
step 2075
H  7.651168490000e-01  2.737934769000e-01 -1.672402144000e-01 -3.602007062958e-03 -1.367811766198e-03  7.988734241240e-04
O -5.566799050000e-02 -1.228318811000e-01  6.626416320000e-02  1.753533766541e-04  8.517110854376e-05 -4.691022071869e-05
H -8.105228097000e-01  3.193876937000e-01 -1.785134590000e-01  6.605060067676e-04  2.123334804637e-05 -3.454773133983e-05
3
step 2076
H  7.494387106000e-01  2.679855175000e-01 -1.638462379000e-01 -3.520818179945e-03 -1.266976582662e-03  7.406875995667e-04
O -5.487986710000e-02 -1.224950152000e-01  6.607908210000e-02  1.823897305776e-04  6.751684870482e-05 -3.692729471270e-05
H -8.080462756000e-01  3.198718590000e-01 -1.788835535000e-01  4.676747937063e-04  2.005848528408e-04 -1.348921235023e-04
3
step 2077
H  7.343069964000e-01  2.627064625000e-01 -1.607586312000e-01 -3.349110340546e-03 -1.124345890063e-03  6.578240972588e-04
O -5.407194080000e-02 -1.222410570000e-01  6.594102120000e-02  1.839945182639e-04  4.729265585214e-05 -2.542386622236e-05
H -8.064302975000e-01  3.211429647000e-01 -1.796938683000e-01  2.705389741584e-04  3.789521648304e-04 -2.346695389524e-04
3
step 2078
H  7.201314328000e-01  2.581466308000e-01 -1.580897738000e-01 -3.082466317263e-03 -9.372872008556e-04  5.487252156826e-04
O -5.326977430000e-02 -1.220811683000e-01  6.585660380000e-02  1.794646971832e-04  2.458095934999e-05 -1.243981747488e-05
H -8.056788526000e-01  3.231879803000e-01 -1.809370915000e-01  7.583659213018e-05  5.524105437439e-04 -3.317058912086e-04
3
step 2079
H  7.073330578000e-01  2.545044824000e-01 -1.559568658000e-01 -2.720889250394e-03 -7.051015041585e-04  4.129751694780e-04
O -5.250148740000e-02 -1.220259549000e-01  6.583216330000e-02  1.683938800106e-04 -4.286436646553e-07  1.921432000745e-06
H -8.057666693000e-01  3.259769795000e-01 -1.825965486000e-01 -1.099856611839e-04  7.172616660849e-04 -4.239510372381e-04
3
step 2080
H  6.963215703000e-01  2.519764532000e-01 -1.544759251000e-01 -2.270185274569e-03 -4.297693353759e-04  2.517396807205e-04
O -5.179619900000e-02 -1.220849192000e-01  6.587341780000e-02  1.507814039469e-04 -2.740418678850e-05  1.747161523694e-05
H -8.066413113000e-01  3.294645687000e-01 -1.846469874000e-01 -2.811161567774e-04  8.702171656553e-04 -5.095804142849e-04
3
step 2081
H  6.874671999000e-01  2.507436719000e-01 -1.537539510000e-01 -1.742876984025e-03 -1.165268675432e-04  6.810499385213e-05
O -5.118203480000e-02 -1.222657625000e-01  6.598505330000e-02  1.271069939048e-04 -5.584371162427e-05  3.392084672253e-05
H -8.082266507000e-01  3.335920455000e-01 -1.870557671000e-01 -4.326482470885e-04  1.008538155071e-03 -5.870725096671e-04
3
step 2082
H  6.810700633000e-01  2.509567540000e-01 -1.538799543000e-01 -1.158237797601e-03  2.259414929410e-04 -1.328086668110e-04
O -5.068391550000e-02 -1.225735944000e-01  6.617025110000e-02  9.834367566540e-05 -8.506788556900e-05  5.087301480560e-05
H -8.104273145000e-01  3.382900491000e-01 -1.897843210000e-01 -5.607502717077e-04  1.130117600274e-03 -6.552548224732e-04
3
step 2083
H  6.773317330000e-01  2.527208328000e-01 -1.549161284000e-01 -5.411582978630e-04  5.858717049445e-04 -3.440643855082e-04
O -5.032145240000e-02 -1.230101715000e-01  6.643023110000e-02  6.589050404614e-05 -1.142446168047e-04  6.784024899993e-05
H -8.131336446000e-01  3.434814391000e-01 -1.927897481000e-01 -6.627338348360e-04  1.233506242836e-03 -7.133186462690e-04
3
step 2084
H  6.763345141000e-01  2.560835796000e-01 -1.568907809000e-01  8.014680726911e-05  9.493956141637e-04 -5.574840841419e-04
O -5.010732320000e-02 -1.235733222000e-01  6.676390520000e-02  3.142615741563e-05 -1.424486787995e-04  8.427822661236e-05
H -8.162267426000e-01  3.490841724000e-01 -1.960264049000e-01 -7.370246238368e-04  1.317884264151e-03 -7.608037012988e-04
3
step 2085
H  6.780330789000e-01  2.610287708000e-01 -1.597945407000e-01  6.771928220517e-04  1.301980429550e-03 -7.644982491254e-04
O -5.004644950000e-02 -1.242567065000e-01  6.716773000000e-02 -3.289673512226e-06 -1.687485324304e-04  9.963772937773e-05
H -8.195831739000e-01  3.550139346000e-01 -1.994473625000e-01 -7.830646989219e-04  1.382997688712e-03 -7.975632712479e-04
3
step 2086
H  6.822604694000e-01  2.674769045000e-01 -1.635807255000e-01  1.224349612583e-03  1.630014966333e-03 -9.570821420968e-04
O -5.013611040000e-02 -1.250500010000e-01  6.763581150000e-02 -3.662216482012e-05 -1.923009965634e-04  1.134207802649e-04
H -8.230791577000e-01  3.611864602000e-01 -2.030056937000e-01 -8.011701650241e-04  1.429071941380e-03 -8.237165685500e-04
3
step 2087
H  6.887470747000e-01  2.752926488000e-01 -1.681697417000e-01  1.701317404047e-03  1.922172585135e-03 -1.128559821049e-03
O -5.036692140000e-02 -1.259394873000e-01  6.816024860000e-02 -6.722791853868e-05 -2.124310079365e-04  1.252279216289e-04
H -8.265940258000e-01  3.675194074000e-01 -2.066555127000e-01 -7.923640046998e-04  1.456712948605e-03 -8.395940694531e-04
3
step 2088
H  6.971482983000e-01  2.842973852000e-01 -1.734564873000e-01  2.094478241979e-03  2.170273484582e-03 -1.274111702807e-03
O -5.072440610000e-02 -1.269089348000e-01  6.873165160000e-02 -9.415037830384e-05 -2.286798363728e-04  1.347867521440e-04
H -8.300129490000e-01  3.739338130000e-01 -2.103527841000e-01 -7.582143825515e-04  1.466813331770e-03 -8.456856099858e-04
3
step 2089
H  7.070753617000e-01  2.942842022000e-01 -1.793191938000e-01  2.397040135090e-03  2.369548751354e-03 -1.390928652416e-03
O -5.119080930000e-02 -1.279406108000e-01  6.933973590000e-02 -1.168381957510e-04 -2.408160278236e-04  1.419583399577e-04
H -8.332289817000e-01  3.803551463000e-01 -2.140559088000e-01 -7.006858628089e-04  1.460467632888e-03 -8.425934369195e-04
3
step 2090
H  7.181242333000e-01  3.050327495000e-01 -1.856281771000e-01  2.608222337929e-03  2.518385968719e-03 -1.478061363162e-03
O -5.174682980000e-02 -1.290162593000e-01  6.997389570000e-02 -1.351020022946e-04 -2.488145879028e-04  1.467248123469e-04
H -8.361444863000e-01  3.867140221000e-01 -2.177261213000e-01 -6.220089567341e-04  1.438900823712e-03 -8.309925906611e-04
3
step 2091
H  7.298993026000e-01  3.163220061000e-01 -1.922533615000e-01  2.731890647351e-03  2.617737451124e-03 -1.536072693262e-03
O -5.237305510000e-02 -1.301179288000e-01  7.062369020000e-02 -1.490348046598e-04 -2.528162311644e-04  1.491655132314e-04
H -8.386720359000e-01  3.929466293000e-01 -2.213277297000e-01 -5.245754826286e-04  1.403412900292e-03 -8.116002290778e-04
3
step 2092
H  7.420303666000e-01  3.279399549000e-01 -1.990699884000e-01  2.775045036458e-03  2.670395612704e-03 -1.566611344276e-03
O -5.305099830000e-02 -1.312285947000e-01  7.127920810000e-02 -1.589217070615e-04 -2.530797464098e-04  1.494292661703e-04
H -8.407349232000e-01  3.989949587000e-01 -2.248282443000e-01 -4.108575306324e-04  1.355338909327e-03 -7.851535220012e-04
3
step 2093
H  7.541830697000e-01  3.396900106000e-01 -2.059624093000e-01  2.746448304796e-03  2.680295949359e-03 -1.572000166822e-03
O -5.376374170000e-02 -1.323325702000e-01  7.193131060000e-02 -1.651575458347e-04 -2.499369949087e-04  1.477081595114e-04
H -8.422673536000e-01  4.048068817000e-01 -2.281984237000e-01 -2.833456715554e-04  1.296021138026e-03 -7.523942971415e-04
3
step 2094
H  7.660638904000e-01  3.513945950000e-01 -2.128261925000e-01  2.655543160462e-03  2.651938204802e-03 -1.554893726514e-03
O -5.449625320000e-02 -1.334157346000e-01  7.257176750000e-02 -1.681815648600e-04 -2.437557662179e-04  1.442157882933e-04
H -8.432144145000e-01  4.103361352000e-01 -2.314122700000e-01 -1.445061583335e-04  1.226792658405e-03 -7.140599985922e-04
3
step 2095
H  7.774211040000e-01  3.628964988000e-01 -2.195689190000e-01  2.511686760174e-03  2.589954504309e-03 -1.518023510239e-03
O -5.523545900000e-02 -1.344656196000e-01  7.319330910000e-02 -1.684310424757e-04 -2.349118949050e-04  1.391708213970e-04
H -8.435318931000e-01  4.155422560000e-01 -2.344469950000e-01  3.246271592761e-06  1.148969423976e-03 -6.708793763497e-04
3
step 2096
H  7.880430711000e-01  3.740586784000e-01 -2.261100596000e-01  2.323665316288e-03  2.498816511762e-03 -1.464026087471e-03
O -5.597015370000e-02 -1.354713935000e-01  7.378961870000e-02 -1.663115889317e-04 -2.237702359265e-04  1.327856973907e-04
H -8.431860072000e-01  4.203904967000e-01 -2.372829778000e-01  1.575628453014e-04  1.063848807017e-03 -6.235717092386e-04
3
step 2097
H  7.977549532000e-01  3.847630550000e-01 -2.323802673000e-01  2.099428510870e-03  2.382658416547e-03 -1.395339315915e-03
O -5.669081270000e-02 -1.364237804000e-01  7.435528560000e-02 -1.621805535548e-04 -2.106731319210e-04  1.252597497032e-04
H -8.421530976000e-01  4.248517469000e-01 -2.399037245000e-01  3.161654808322e-04  9.727124371856e-04 -5.728484230559e-04
3
step 2098
H  8.064146767000e-01  3.949087624000e-01 -2.383203461000e-01  1.845984302612e-03  2.245188904683e-03 -1.314150227206e-03
O -5.738935760000e-02 -1.373149446000e-01  7.488573730000e-02 -1.563401362082e-04 -1.959350102541e-04  1.167758880560e-04
H -8.404193173000e-01  4.289024746000e-01 -2.422958397000e-01  4.768441131352e-04  8.768320067192e-04 -5.194163588564e-04
3
step 2099
H  8.139087281000e-01  4.044101756000e-01 -2.438800872000e-01  1.569403004189e-03  2.089666795237e-03 -1.222380358478e-03
O -5.805890850000e-02 -1.381383616000e-01  7.537716390000e-02 -1.490371678817e-04 -1.798413545361e-04  1.074999128096e-04
H -8.379803468000e-01  4.325246978000e-01 -2.444490150000e-01  6.374487770484e-04  7.774769543401e-04 -4.639820834333e-04
3
step 2100
H  8.201481537000e-01  4.131949455000e-01 -2.490171094000e-01  1.274888576596e-03  1.918918401092e-03 -1.121696055464e-03
O -5.869354690000e-02 -1.388886940000e-01  7.582644380000e-02 -1.404669732116e-04 -1.626505101787e-04  9.758158458409e-05
H -8.348411528000e-01  4.357059928000e-01 -2.463560380000e-01  7.958785362660e-04  6.759228256645e-04 -4.072565883358e-04
3
step 2101
H  8.250649785000e-01  4.212021796000e-01 -2.536957859000e-01  9.668853626723e-04  1.735379426997e-03 -1.013533343463e-03
O -5.928810200000e-02 -1.395616781000e-01  7.623107750000e-02 -1.307793768122e-04 -1.445970760985e-04  8.715658065949e-05
H -8.310158007000e-01  4.384395397000e-01 -2.480128218000e-01  9.500693655404e-04  5.734595467655e-04 -3.499598883241e-04
3
step 2102
H  8.286091403000e-01  4.283808432000e-01 -2.578863016000e-01  6.491983325902e-04  1.541148606024e-03 -8.991296822782e-04
O -5.983796650000e-02 -1.401540290000e-01  7.658913060000e-02 -1.200854912542e-04 -1.258958769409e-04  7.634886733971e-05
H -8.265273190000e-01  4.407242026000e-01 -2.494184547000e-01  1.097981036401e-03  4.713991400703e-04 -2.928253272788e-04
3
step 2103
H  8.307459606000e-01  4.346884090000e-01 -2.615638585000e-01  3.251124654151e-04  1.338044279758e-03 -7.795574307206e-04
O -6.033894190000e-02 -1.406633633000e-01  7.689918850000e-02 -1.084645141845e-04 -1.067459170205e-04  6.527306774560e-05
H -8.214076266000e-01  4.425646428000e-01 -2.505752674000e-01  1.237585886134e-03  3.710810450370e-04 -2.366025265142e-04
3
step 2104
H  8.314541232000e-01  4.400897543000e-01 -2.647080255000e-01 -2.489094367526e-06  1.127665005572e-03 -6.557595691981e-04
O -6.078711390000e-02 -1.410881375000e-01  7.716031990000e-02 -9.597082713399e-05 -8.733434340262e-05  5.403679303969e-05
H -8.156974957000e-01  4.439714456000e-01 -2.514889078000e-01  1.366863890218e-03  2.738748653439e-04 -1.820588703633e-04
3
step 2105
H  8.307241791000e-01  4.445563405000e-01 -2.673022564000e-01 -3.310156155624e-04  9.114476132673e-04 -5.285839595784e-04
O -6.117876010000e-02 -1.414276056000e-01  7.737205170000e-02 -8.264081549271e-05 -6.784000673540e-05  4.274274967045e-05
H -8.094465219000e-01  4.449612574000e-01 -2.521684218000e-01  1.483801583555e-03  1.811788787334e-04 -1.299787016759e-04
3
step 2106
H  8.285574833000e-01  4.480656182000e-01 -2.693335396000e-01 -6.580707636916e-04  6.907204164174e-04 -3.988146841629e-04
O -6.151028430000e-02 -1.416817894000e-01  7.753435160000e-02 -6.849905768311e-05 -4.843640042094e-05  3.149054949983e-05
H -8.027130967000e-01  4.455568994000e-01 -2.526263209000e-01  1.586392375877e-03  9.441412667173e-05 -8.115987983457e-05
3
step 2107
H  8.249655565000e-01  4.506006726000e-01 -2.707921900000e-01 -9.813540633245e-04  4.667612050139e-04 -2.672062278408e-04
O -6.177817920000e-02 -1.418514612000e-01  7.764761810000e-02 -5.356548796225e-05 -2.929444894314e-05  2.037835994460e-05
H -7.955643749000e-01  4.457874533000e-01 -2.528786329000e-01  1.672652116094e-03  1.501127264123e-05 -3.640644882398e-05
3
step 2108
H  8.199698844000e-01  4.521501359000e-01 -2.716717985000e-01 -1.298568631859e-03  2.408540359289e-04 -1.345169334497e-04
O -6.197902330000e-02 -1.419381383000e-01  7.771267790000e-02 -3.786280605968e-05 -1.058469281944e-05  9.504288998190e-06
H -7.880761110000e-01  4.456882595000e-01 -2.529449051000e-01  1.740644196390e-03 -5.561133422777e-05  3.483667979008e-06
3
step 2109
H  8.136020875000e-01  4.527083297000e-01 -2.719693161000e-01 -1.607334421393e-03  1.434515945387e-05 -1.541913183745e-06
O -6.210950770000e-02 -1.419440854000e-01  7.773078790000e-02 -2.142389595736e-05  7.521111538979e-06 -1.032636569184e-06
H -7.803324065000e-01  4.453008115000e-01 -2.528481481000e-01  1.788510566651e-03 -1.160774074129e-04  3.773541148407e-05
3
step 2110
H  8.059044786000e-01  4.522756670000e-01 -2.716852914000e-01 -1.905100404688e-03 -2.112965471274e-04  1.308513430913e-04
O -6.216649880000e-02 -1.418723228000e-01  7.770364150000e-02 -4.300355429573e-06  2.484880793081e-05 -1.113166213837e-05
H -7.724252753000e-01  4.446724934000e-01 -2.526146914000e-01  1.814519200030e-03 -1.650936702768e-04  6.561965229933e-05
3
step 2111
H  7.969310015000e-01  4.508593232000e-01 -2.708242667000e-01 -2.189057647914e-03 -4.344161382283e-04  2.616856728130e-04
O -6.214713920000e-02 -1.417266393000e-01  7.763337740000e-02  1.342829790482e-05  4.122109071579e-05 -2.068982528325e-05
H -7.644539753000e-01  4.438561156000e-01 -2.522739260000e-01  1.817123575747e-03 -2.015014081309e-04  8.648223047803e-05
3
step 2112
H  7.867485494000e-01  4.484741934000e-01 -2.693953416000e-01 -2.456052182264e-03 -6.531049853001e-04  3.898344590578e-04
O -6.204899090000e-02 -1.415116067000e-01  7.752258970000e-02  3.164463888426e-05  5.645717570069e-05 -2.960169979313e-05
H -7.565240538000e-01  4.429092019000e-01 -2.518579057000e-01  1.795034028276e-03 -2.243378982932e-04  9.977874561949e-05
3
step 2113
H  7.754386659000e-01  4.451441549000e-01 -2.674129169000e-01 -2.702497994423e-03 -8.651287557003e-04  5.139793759500e-04
O -6.187022430000e-02 -1.412325958000e-01  7.737433980000e-02  5.018275287252e-05  7.037265843738e-05 -3.775924482878e-05
H -7.487460543000e-01  4.418929874000e-01 -2.514007856000e-01  1.747299047670e-03 -2.329059537219e-04  1.051138768598e-04
3
step 2114
H  7.630996244000e-01  4.409036549000e-01 -2.648976288000e-01 -2.924292613372e-03 -1.067852260406e-03  6.325663193717e-04
O -6.160985350000e-02 -1.408957921000e-01  7.719216750000e-02  6.881738413614e-05  8.277939537606e-05 -4.505173178599e-05
H -7.412338503000e-01  4.408710967000e-01 -2.509380789000e-01  1.673392814760e-03 -2.268477999843e-04  1.022832854937e-04
3
step 2115
H  7.498488683000e-01  4.357996307000e-01 -2.618774777000e-01 -3.116740559372e-03 -1.258164699410e-03  7.437616393613e-04
O -6.126801960000e-02 -1.405082128000e-01  7.698010270000e-02  8.725352761156e-05  9.348528902695e-05 -5.136561173568e-05
H -7.341025870000e-01  4.399078956000e-01 -2.505057286000e-01  1.573303828837e-03 -2.062182620013e-04  9.131506049387e-05
3
step 2116
H  7.358257600000e-01  4.298937512000e-01 -2.583891455000e-01 -3.274494912501e-03 -1.432412810416e-03  8.454130715293e-04
O -6.084631840000e-02 -1.400777243000e-01  7.674267910000e-02  1.051175931063e-04  1.022938811387e-04 -5.658425030429e-05
H -7.274662382000e-01  4.390665291000e-01 -2.501390022000e-01  1.447615152066e-03 -1.715479996607e-04  7.250554166430e-05
3
step 2117
H  7.211945326000e-01  4.232649227000e-01 -2.544794666000e-01 -3.391534119248e-03 -1.586354550612e-03  9.350226582831e-04
O -6.034816020000e-02 -1.396130630000e-01  7.648494720000e-02  1.219517417940e-04  1.090041835703e-04 -6.058774026154e-05
H -7.214348469000e-01  4.384067193000e-01 -2.498712496000e-01  1.297569980890e-03 -1.238900820307e-04  4.644571733227e-05
3
step 2118
H  7.061472417000e-01  4.160119353000e-01 -2.502069819000e-01 -3.461199552664e-03 -1.715152596661e-03  1.009743050865e-03
O -5.977914730000e-02 -1.391238543000e-01  7.621249000000e-02  1.372135708137e-04  1.134114553660e-04 -6.325321235045e-05
H -7.161115082000e-01  4.379823961000e-01 -2.497325667000e-01  1.125113096125e-03 -6.484065298210e-05  1.403296275060e-05
3
step 2119
H  6.909063885000e-01  4.082560253000e-01 -2.456434424000e-01 -3.476325658693e-03 -1.813433292690e-03  1.066412354304e-03
O -5.914743650000e-02 -1.386206260000e-01  7.593143320000e-02  1.502840028655e-04  1.153100550773e-04 -6.445637115298e-05
H -7.115892465000e-01  4.378393140000e-01 -2.497484505000e-01  9.328960647919e-04  3.477236541337e-06 -2.353807453400e-05
3
step 2120
H  6.757267327000e-01  4.001430066000e-01 -2.408750579000e-01 -3.429498671840e-03 -1.875441736162e-03  1.101645452005e-03
O -5.846404730000e-02 -1.381148031000e-01  7.564844740000e-02  1.604859360084e-04  1.145001373206e-04 -6.407541246187e-05
H -7.079479539000e-01  4.380128246000e-01 -2.499385428000e-01  7.242434739204e-04  7.846866371087e-05 -6.480654853543e-05
3
step 2121
H  6.608956514000e-01  3.918444753000e-01 -2.360032018000e-01 -3.313480930067e-03 -1.895327151778e-03  1.112001936206e-03
O -5.774306180000e-02 -1.376186622000e-01  7.537072430000e-02  1.671162088659e-04  1.108001134014e-04 -6.199853348111e-05
H -7.052515620000e-01  4.385259748000e-01 -2.503155574000e-01  5.030740711631e-04  1.571641190209e-04 -1.081004637293e-04
3
step 2122
H  6.467312395000e-01  3.835574440000e-01 -2.311441902000e-01 -3.121838435928e-03 -1.867592849853e-03  1.094250697418e-03
O -5.700165260000e-02 -1.371452174000e-01  7.510591280000e-02  1.694929839112e-04  1.040668232654e-04 -5.813621518060e-05
H -7.035456709000e-01  4.393881309000e-01 -2.508845046000e-01  2.737785629069e-04  2.363540865222e-04 -1.516128832470e-04
3
step 2123
H  6.335771767000e-01  3.755016091000e-01 -2.264276711000e-01 -2.849793417450e-03 -1.787731887306e-03  1.045743702026e-03
O -5.625986850000e-02 -1.367079979000e-01  7.486198800000e-02  1.670192299166e-04  9.422535689099e-05 -5.243916358460e-05
H -7.028557901000e-01  4.405942539000e-01 -2.516422861000e-01  4.106346335499e-05  3.127479876387e-04 -1.934919735739e-04
3
step 2124
H  6.217933669000e-01  3.679134222000e-01 -2.219931328000e-01 -2.495273827229e-03 -1.653032377819e-03  9.648894366135e-04
O -5.554010660000e-02 -1.363206734000e-01  7.464703000000e-02  1.592599494875e-04  8.130836513756e-05 -4.492167230052e-05
H -7.031863341000e-01  4.421249150000e-01 -2.525777074000e-01 -1.902304164605e-04  3.831443377189e-04 -2.319373435546e-04
3
step 2125
H  6.117416217000e-01  3.610363111000e-01 -2.179841503000e-01 -2.060049087700e-03 -1.463469884674e-03  8.516776575033e-04
O -5.486622210000e-02 -1.359964875000e-01  7.446888900000e-02  1.460255729130e-04  6.550120779831e-05 -3.568820762297e-05
H -7.045204518000e-01  4.439470600000e-01 -2.536719153000e-01 -4.153207929612e-04  4.445948505444e-04 -2.652928911323e-04
3
step 2126
H  6.037663613000e-01  3.551069411000e-01 -2.145403017000e-01 -1.550741723827e-03 -1.222521662694e-03  7.081588185583e-04
O -5.426227110000e-02 -1.357474877000e-01  7.433473090000e-02  1.274475401293e-04  4.718406648944e-05 -2.495823836282e-05
H -7.068207088000e-01  4.460154601000e-01 -2.548992231000e-01 -6.296728443610e-04  4.945462133627e-04 -2.921269014881e-04
3
step 2127
H  5.981714452000e-01  3.503383113000e-01 -2.117872189000e-01 -9.794289242193e-04 -9.376722414755e-04  5.387429387628e-04
O -5.375095860000e-02 -1.355835908000e-01  7.425048530000e-02  1.040270735981e-04  2.695735042880e-05 -1.308136595290e-05
H -7.100305710000e-01  4.482747177000e-01 -2.562282492000e-01 -8.291699660212e-04  5.309468798351e-04 -3.112922520629e-04
3
step 2128
H  5.951956089000e-01  3.469015916000e-01 -2.098258888000e-01 -3.635357527551e-04 -6.203695937851e-04  3.501760294260e-04
O -5.335195460000e-02 -1.355115903000e-01  7.422025890000e-02  7.663742268147e-05  5.635411271195e-06 -5.339418865399e-07
H -7.140765804000e-01  4.506616515000e-01 -2.576232685000e-01 -1.010251842950e-03  5.523104199267e-04 -3.219618334601e-04
3
step 2129
H  5.949902293000e-01  3.449096027000e-01 -2.087229107000e-01  2.751653856509e-04 -2.852845511735e-04  1.511064680966e-04
O -5.308032260000e-02 -1.355342766000e-01  7.424581290000e-02  4.646722402327e-05 -1.580109158389e-05  1.210866471473e-05
H -7.188710475000e-01  4.531078564000e-01 -2.590456615000e-01 -1.170015227277e-03  5.577360438263e-04 -3.236397118987e-04
3
step 2130
H  5.976035166000e-01  3.444051335000e-01 -2.085035916000e-01  9.124169090889e-04  5.109589360404e-05 -4.874127890693e-05
O -5.294533080000e-02 -1.356498619000e-01  7.432621900000e-02  1.490668749986e-05 -3.629254335466e-05  2.422329919322e-05
H -7.243151088000e-01  4.555422686000e-01 -2.604553636000e-01 -1.306269585959e-03  5.468881603045e-04 -3.161490708384e-04
3
step 2131
H  6.029745753000e-01  3.453567309000e-01 -2.091494342000e-01  1.523884465218e-03  3.722843089732e-04 -2.396349013804e-04
O -5.294987760000e-02 -1.358518641000e-01  7.445778530000e-02 -1.660341229060e-05 -5.481174699634e-05  3.520455162542e-05
H -7.303019057000e-01  4.578935462000e-01 -2.618122078000e-01 -1.417550196777e-03  5.199457022879e-04 -2.996031346653e-04
3
step 2132
H  6.109386715000e-01  3.476629061000e-01 -2.106005803000e-01  2.087595214078e-03  6.636056946054e-04 -4.129024398370e-04
O -5.309062340000e-02 -1.361295066000e-01  7.463428580000e-02 -4.672697274087e-05 -7.047374674164e-05  4.452952373065e-05
H -7.367197575000e-01  4.600921913000e-01 -2.630771202000e-01 -1.503093803037e-03  4.775293652206e-04 -2.743636271808e-04
3
step 2133
H  6.212426305000e-01  3.511637884000e-01 -2.127626464000e-01  2.585879066357e-03  9.135984972061e-04 -5.617594817537e-04
O -5.335877440000e-02 -1.364685633000e-01  7.484745270000e-02 -7.435838537630e-05 -8.261881513058e-05  5.180681658777e-05
H -7.434551264000e-01  4.620722935000e-01 -2.642130994000e-01 -1.562782997863e-03  4.206174178540e-04 -2.409928672189e-04
3
step 2134
H  6.335670916000e-01  3.556575919000e-01 -2.155164056000e-01  3.006462777444e-03  1.114746189978e-03 -6.817433636064e-04
O -5.374131620000e-02 -1.368524845000e-01  7.508763500000e-02 -9.869601971555e-05 -9.085302546305e-05  5.680064281271e-05
H -7.503953043000e-01  4.637729155000e-01 -2.651859922000e-01 -1.597072159810e-03  3.504626283674e-04 -2.002066641932e-04
3
step 2135
H  6.475514799000e-01  3.609186704000e-01 -2.187284224000e-01  3.342651540695e-03  1.263511541626e-03 -7.707370499253e-04
O -5.422244010000e-02 -1.372635968000e-01  7.534450180000e-02 -1.192589715205e-04 -9.504481438507e-05  5.942920384320e-05
H -7.574307297000e-01  4.651391096000e-01 -2.659650609000e-01 -1.606899579413e-03  2.685124496321e-04 -1.528290969081e-04
3
step 2136
H  6.628178499000e-01  3.667142845000e-01 -2.222609444000e-01  3.592764977320e-03  1.359825790162e-03 -8.286712119152e-04
O -5.478492340000e-02 -1.376841993000e-01  7.560768600000e-02 -1.358571362699e-04 -9.528804340420e-05  5.974335237581e-05
H -7.644569050000e-01  4.661226048000e-01 -2.665233637000e-01 -1.593596477419e-03  1.763396675612e-04 -9.975335812494e-05
3
step 2137
H  6.789909221000e-01  3.728181864000e-01 -2.259799295000e-01  3.759119735049e-03  1.406273121067e-03 -8.570455218815e-04
O -5.541129390000e-02 -1.380974401000e-01  7.586730180000e-02 -1.485328188363e-04 -9.184712368753e-05  5.789472772348e-05
H -7.713759181000e-01  4.666822166000e-01 -2.668379791000e-01 -1.558797732598e-03  7.558406106723e-05 -4.190891629046e-05
3
step 2138
H  6.957130235000e-01  3.790202502000e-01 -2.297607484000e-01  3.846858477378e-03  1.407201158782e-03 -8.584053664129e-04
O -5.608469920000e-02 -1.384879319000e-01  7.611430920000e-02 -1.574923691777e-04 -8.509896856557e-05  5.410182506794e-05
H -7.780975777000e-01  4.667840232000e-01 -2.668900988000e-01 -1.504361239648e-03 -3.209263171427e-05  1.976371654272e-05
3
step 2139
H  7.126538768000e-01  3.851322732000e-01 -2.334916332000e-01  3.862853974822e-03  1.367921996560e-03 -8.358713915146e-04
O -5.678947270000e-02 -1.388421212000e-01  7.634073420000e-02 -1.630417719690e-04 -7.548156031503e-05  4.861960268848e-05
H -7.845402298000e-01  4.664013816000e-01 -2.666650314000e-01 -1.432299613456e-03 -1.450388660423e-04  8.433086658125e-05
3
step 2140
H  7.295159511000e-01  3.909906142000e-01 -2.370752625000e-01  3.814811245123e-03  1.294085229577e-03 -7.927697703648e-04
O -5.751143940000e-02 -1.391484533000e-01  7.653976790000e-02 -1.655336318090e-04 -6.345340056140e-05  4.171531950319e-05
H -7.906312951000e-01  4.655148222000e-01 -2.661521392000e-01 -1.344724056858e-03 -2.616352726482e-04  1.508778115176e-04
3
step 2141
H  7.460363937000e-01  3.964565090000e-01 -2.404289752000e-01  3.710600439018e-03  1.191237065473e-03 -7.323711381401e-04
O -5.823801860000e-02 -1.393973870000e-01  7.670577520000e-02 -1.653275743969e-04 -4.946459395003e-05  3.365137085542e-05
H -7.963075941000e-01  4.641118727000e-01 -2.653447352000e-01 -1.243802252324e-03 -3.803068898094e-04  2.185154222351e-04
3
step 2142
H  7.619865437000e-01  4.014148499000e-01 -2.434840703000e-01  3.557803298173e-03  1.064542876618e-03 -6.577254635970e-04
O -5.895818220000e-02 -1.395813063000e-01  7.683424320000e-02 -1.627632728908e-04 -3.393830348193e-05  2.467440946495e-05
H -8.015155164000e-01  4.621868459000e-01 -2.642399621000e-01 -1.131728810256e-03 -4.995280589208e-04  2.863827225841e-04
3
step 2143
H  7.771698944000e-01  4.057720736000e-01 -2.461845762000e-01  3.363438317502e-03  9.186381479958e-04 -5.715731151331e-04
O -5.966232180000e-02 -1.396943731000e-01  7.692169520000e-02 -1.581441704736e-04 -1.726075824452e-05  1.500966363906e-05
H -8.062110870000e-01  4.597406200000e-01 -2.628386672000e-01 -1.010706674039e-03 -6.178219719635e-04  3.536464551342e-04
3
step 2144
H  7.914192022000e-01  4.094536365000e-01 -2.484857724000e-01  3.133825113595e-03  7.575733460287e-04 -4.763116294069e-04
O -6.034206470000e-02 -1.397323512000e-01  7.696558920000e-02 -1.517295998991e-04  2.221657179308e-07  4.859026582496e-06
H -8.103599730000e-01  4.567804310000e-01 -2.611452850000e-01 -8.829372786227e-04 -7.337567952717e-04  4.194987956600e-04
3
step 2145
H  8.045932617000e-01  4.124014200000e-01 -2.503526673000e-01  2.874548450723e-03  5.848228229386e-04 -3.740000355311e-04
O -6.099007180000e-02 -1.396924290000e-01  7.696421540000e-02 -1.437327996660e-04  1.820390778081e-05 -5.598363081909e-06
H -8.139374637000e-01  4.533196867000e-01 -2.591677318000e-01 -7.506174650692e-04 -8.459399923154e-04  4.831540665710e-04
3
step 2146
H  8.165737003000e-01  4.145712836000e-01 -2.517585588000e-01  2.590487001751e-03  4.033321908917e-04 -2.663859612746e-04
O -6.159983670000e-02 -1.395730530000e-01  7.691659930000e-02 -1.343227515708e-04  3.641358420010e-05 -1.620415119976e-05
H -8.169284501000e-01  4.493778089000e-01 -2.569173173000e-01 -6.159408518667e-04 -9.530122213764e-04  5.438452537878e-04
3
step 2147
H  8.272620049000e-01  4.159308852000e-01 -2.526837483000e-01  2.285880007452e-03  2.155849493164e-04 -1.549442948242e-04
O -6.216549870000e-02 -1.393737822000e-01  7.682241660000e-02 -1.236281940716e-04  5.461121595822e-05 -2.681813060140e-05
H -8.193274174000e-01  4.449801007000e-01 -2.544086698000e-01 -4.811015146061e-04 -1.053642307417e-03  6.008211498487e-04
3
step 2148
H  8.365768992000e-01  4.164578169000e-01 -2.531144399000e-01  1.964413536395e-03  2.367587277140e-05 -4.092027130347e-05
O -6.268167800000e-02 -1.390951631000e-01  7.668192010000e-02 -1.117428698292e-04  7.258281947899e-05 -3.731542534816e-05
H -8.211384564000e-01  4.401576326000e-01 -2.516596726000e-01 -3.482970622838e-04 -1.146524814862e-03  6.533449780307e-04
3
step 2149
H  8.444521262000e-01  4.161380672000e-01 -2.530418320000e-01  1.629314913256e-03 -1.706160811424e-04  7.462751841625e-05
O -6.314333430000e-02 -1.387386270000e-01  7.649587810000e-02 -9.873125777739e-05  9.013575332017e-05 -4.758376639906e-05
H -8.223752832000e-01  4.349471314000e-01 -2.486914014000e-01 -2.197313616344e-04 -1.230379883044e-03  7.006943374965e-04
3
step 2150
H  8.508346512000e-01  4.149647956000e-01 -2.524613920000e-01  1.283450141164e-03 -3.657579173187e-04  1.907857827595e-04
O -6.354565200000e-02 -1.383064063000e-01  7.626552570000e-02 -8.463501370261e-05  1.070947322363e-04 -5.752114667303e-05
H -8.230612739000e-01  4.293908673000e-01 -2.455280610000e-01 -9.760955470997e-05 -1.303959854195e-03  7.421649698223e-04
3
step 2151
H  8.556832968000e-01  4.129374056000e-01 -2.513723104000e-01  9.294202178434e-04 -5.603977539584e-04  3.067481419459e-04
O -6.388395540000e-02 -1.378014662000e-01  7.599252410000e-02 -6.947970336951e-05  1.232985406089e-04 -6.703383265132e-05
H -8.232294415000e-01  4.235364850000e-01 -2.421968901000e-01  1.587312185739e-05 -1.366061359244e-03  7.770776292549e-04
3
step 2152
H  8.589677891000e-01  4.100608865000e-01 -2.497771111000e-01  5.696567021221e-04 -7.533029811198e-04  4.217784774803e-04
O -6.415365260000e-02 -1.372274498000e-01  7.567892840000e-02 -5.328179162421e-05  1.385970155673e-04 -7.603454053697e-05
H -8.229223719000e-01  4.174367853000e-01 -2.387280373000e-01  1.185464578187e-04 -1.415538816070e-03  8.047858214628e-04
3
step 2153
H  8.606682288000e-01  4.063454282000e-01 -2.476814260000e-01  2.065194608091e-04 -9.433020852335e-04  5.351763751745e-04
O -6.435021180000e-02 -1.365886363000e-01  7.532716370000e-02 -3.605689310146e-05  1.528492185774e-04 -8.444129806859e-05
H -8.221920693000e-01  4.111494374000e-01 -2.351543985000e-01  2.082987292398e-04 -1.451332788159e-03  8.246918707036e-04
3
step 2154
H  8.607749924000e-01  4.018062716000e-01 -2.450939084000e-01 -1.576057169815e-04 -1.129229367079e-03  6.462442228810e-04
O -6.446917800000e-02 -1.358899022000e-01  7.494000250000e-02 -1.782873144127e-05  1.659221464109e-04 -9.217659430903e-05
H -8.210995987000e-01  4.047365131000e-01 -2.315113525000e-01  2.831210146267e-04 -1.472504372463e-03  8.362664609720e-04
3
step 2155
H  8.592890582000e-01  3.964638074000e-01 -2.420262947000e-01 -5.202053595849e-04 -1.309868932967e-03  7.542537962716e-04
O -6.450622690000e-02 -1.351366905000e-01  7.452054790000e-02  1.360978146549e-06  1.776897072356e-04 -9.916672598820e-05
H -8.197145438000e-01  3.982638976000e-01 -2.278364271000e-01  3.411623992416e-04 -1.478273961717e-03  8.390706363620e-04
3
step 2156
H  8.562227975000e-01  3.903439163000e-01 -2.384936106000e-01 -8.785319723695e-04 -1.483898836766e-03  8.584129040396e-04
O -6.445726840000e-02 -1.343349813000e-01  7.407221770000e-02  2.144126129617e-05  1.880322497987e-04 -1.053413723974e-04
H -8.181141667000e-01  3.918004850000e-01 -2.241688425000e-01  3.808019596661e-04 -1.468068627728e-03  8.327826695752e-04
3
step 2157
H  8.516012313000e-01  3.834785573000e-01 -2.345145250000e-01 -1.229489007794e-03 -1.649831944505e-03  9.578300492754e-04
O -6.431859940000e-02 -1.334912645000e-01  7.359873030000e-02  4.229962041519e-05  1.968359463385e-04 -1.106331657126e-04
H -8.163822353000e-01  3.854171740000e-01 -2.205489417000e-01  4.007288162305e-04 -1.441570752554e-03  8.172255932274e-04
3
step 2158
H  8.454638281000e-01  3.759066246000e-01 -2.301118649000e-01 -1.569506569991e-03 -1.805954696291e-03  1.051477701249e-03
O -6.408711430000e-02 -1.326125162000e-01  7.310409290000e-02  6.376841301847e-05  2.039923263390e-04 -1.149772613178e-04
H -8.146074830000e-01  3.791856380000e-01 -2.170174933000e-01  4.000341158284e-04 -1.398771408975e-03  7.923974417762e-04
3
step 2159
H  8.378668481000e-01  3.676750720000e-01 -2.253132907000e-01 -1.894410418218e-03 -1.950263591872e-03  1.138154081609e-03
O -6.376057700000e-02 -1.317061756000e-01  7.259259130000e-02  8.561049869738e-05  2.093974674580e-04 -1.183106887187e-04
H -8.128816308000e-01  3.731768541000e-01 -2.136148578000e-01  3.783075080527e-04 -1.340020129858e-03  7.584993953459e-04
3
step 2160
H  8.288862876000e-01  3.588403261000e-01 -2.201521460000e-01 -2.199283130998e-03 -2.080399253539e-03  1.216443350719e-03
O -6.333795700000e-02 -1.307801282000e-01  7.206878380000e-02  1.075050460750e-04  2.129501853997e-04 -1.205711173652e-04
H -8.112970029000e-01  3.674594367000e-01 -2.103800433000e-01  3.357239581770e-04 -1.266063117388e-03  7.159573961229e-04
3
step 2161
H  8.186214381000e-01  3.494699869000e-01 -2.146684808000e-01 -2.478326239317e-03 -2.193582408866e-03  1.284676717347e-03
O -6.281982560000e-02 -1.298426985000e-01  7.153750180000e-02  1.290341442627e-04  2.145494192859e-04 -1.216951196602e-04
H -8.099437893000e-01  3.620978332000e-01 -2.073496829000e-01  2.731172447289e-04 -1.178067149548e-03  6.654356877439e-04
3
step 2162
H  8.071990369000e-01  3.396448019000e-01 -2.089102419000e-01 -2.724738308140e-03 -2.286559006370e-03  1.340898864455e-03
O -6.220880950000e-02 -1.289026566000e-01  7.100385840000e-02  1.496720655127e-04  2.140907393903e-04 -1.216160180050e-04
H -8.089070180000e-01  3.571504479000e-01 -2.045569720000e-01  1.920281061377e-04 -1.077622185607e-03  6.078382140302e-04
3
step 2163
H  7.947778934000e-01  3.294608463000e-01 -2.029345898000e-01 -2.930634870269e-03 -2.355567907475e-03  1.382848165786e-03
O -6.151008050000e-02 -1.279692408000e-01  7.047326860000e-02  1.687796748503e-04  2.114625166159e-04 -1.202617135606e-04
H -8.082633965000e-01  3.526678146000e-01 -2.020306335000e-01  9.471311310146e-05 -9.667159283439e-04  5.442941516815e-04
3
step 2164
H  7.815537398000e-01  3.190317805000e-01 -1.968092625000e-01 -3.087048028664e-03 -2.396349493762e-03  1.407961755137e-03
O -6.073185820000e-02 -1.270521978000e-01  6.995147640000e-02  1.856067841535e-04  2.065428599060e-04 -1.175531640953e-04
H -8.080782058000e-01  3.486909439000e-01 -1.997939817000e-01 -1.589240245732e-05 -8.476783683216e-04  4.761264067445e-04
3
step 2165
H  7.677638614000e-01  3.084909549000e-01 -1.906138473000e-01 -3.184055400597e-03 -2.404219818196e-03  1.413419609361e-03
O -5.988587920000e-02 -1.261618327000e-01  6.944458840000e-02  1.993060389388e-04  1.991990540073e-04 -1.134044754048e-04
H -8.084024671000e-01  3.452499804000e-01 -1.978641632000e-01 -1.362624448320e-04 -7.230964382108e-04  4.048031114255e-04
3
step 2166
H  7.536908190000e-01  2.979930178000e-01 -1.844407595000e-01 -3.211101177580e-03 -2.374239778911e-03  1.396244749892e-03
O -5.898777790000e-02 -1.253090537000e-01  6.895910050000e-02  2.089619306817e-04  1.892915956885e-04 -1.077256804983e-04
H -8.092706065000e-01  3.423632969000e-01 -1.962516448000e-01 -2.624179013624e-04 -5.957032521862e-04  3.318747861556e-04
3
step 2167
H  7.396642694000e-01  2.877145404000e-01 -1.783956375000e-01 -3.157583895688e-03 -2.301512944596e-03  1.353480708369e-03
O -5.805730240000e-02 -1.245053864000e-01  6.850190630000e-02  2.136389251801e-04  1.766854384718e-04 -1.004296372806e-04
H -8.106988245000e-01  3.400371212000e-01 -1.949600049000e-01 -3.901052742364e-04 -4.682506290727e-04  2.589019482063e-04
3
step 2168
H  7.260595442000e-01  2.778530187000e-01 -1.725967679000e-01 -3.013786969058e-03 -2.181645948523e-03  1.282467795054e-03
O -5.711827380000e-02 -1.237629209000e-01  6.808026430000e-02  2.124527157528e-04  1.612708502371e-04 -9.144451660352e-05
H -8.126843261000e-01  3.382657457000e-01 -1.939860547000e-01 -5.150018876902e-04 -3.433766056438e-04  1.873799776869e-04
3
step 2169
H  7.132913278000e-01  2.686234693000e-01 -1.671730632000e-01 -2.772195470751e-03 -2.011389566216e-03  1.181228852535e-03
O -5.619817860000e-02 -1.230941431000e-01  6.770169680000e-02  2.046663519774e-04  1.429956892577e-04 -8.073302801325e-05
H -8.152054850000e-01  3.370323132000e-01 -1.933202867000e-01 -6.329286465490e-04 -2.234813149024e-04  1.186687008447e-04
3
step 2170
H  7.018007130000e-01  2.602518212000e-01 -1.622601117000e-01 -2.429148609991e-03 -1.789431139876e-03  1.048946000321e-03
O -5.532728670000e-02 -1.225115993000e-01  6.737378860000e-02  1.898071071865e-04  1.219080793259e-04 -6.831808607768e-05
H -8.182229360000e-01  3.363101132000e-01 -1.929476128000e-01 -7.400510197971e-04 -1.106232008696e-04  5.393364320139e-05
3
step 2171
H  6.920344190000e-01  2.529645778000e-01 -1.579939832000e-01 -1.986624691518e-03 -1.517233417034e-03  8.864657061168e-04
O -5.453722120000e-02 -1.220273541000e-01  6.710386130000e-02  1.677898825351e-04  9.820413129495e-05 -5.431172671531e-05
H -8.216814976000e-01  3.360642755000e-01 -1.928483261000e-01 -8.330481412210e-04 -6.445772417754e-06 -5.895365685093e-06
3
step 2172
H  6.844162271000e-01  2.469748680000e-01 -1.545028586000e-01 -1.453777324137e-03 -1.199733095199e-03  6.967215374273e-04
O -5.385899680000e-02 -1.216522380000e-01  6.689851940000e-02  1.390221349687e-04  7.226950744466e-05 -3.894070952813e-05
H -8.255127445000e-01  3.362537077000e-01 -1.929992017000e-01 -9.092377950529e-04  8.786084822513e-05 -6.014581775792e-05
3
step 2173
H  6.793127552000e-01  2.424659954000e-01 -1.518971367000e-01 -8.477138715031e-04 -8.456591300153e-04  4.849308437910e-04
O -5.332067120000e-02 -1.213949406000e-01  6.676310030000e-02  1.044575182481e-04  4.469970770786e-05 -2.255929839841e-05
H -8.296380239000e-01  3.368331252000e-01 -1.933746480000e-01 -9.666485422357e-04  1.715630017775e-04 -1.084040166169e-04
3
step 2174
H  6.769980822000e-01  2.395747037000e-01 -1.502593427000e-01 -1.930222500724e-04 -4.672469134034e-04  2.584287827201e-04
O -5.294491360000e-02 -1.212610813000e-01  6.670110820000e-02  6.556703061456e-05  1.628430419163e-05 -5.640197138459e-06
H -8.339716588000e-01  3.377550153000e-01 -1.939478198000e-01 -1.004035719025e-03  2.443544750130e-04 -1.504984618287e-04
3
step 2175
H  6.776236628000e-01  2.383772274000e-01 -1.496356872000e-01  4.801940785187e-04 -7.925137470357e-05  2.607921463665e-05
O -5.274690960000e-02 -1.212524405000e-01  6.671374430000e-02  2.421281782393e-05 -1.205166855530e-05  1.126060629278e-05
H -8.384241046000e-01  3.389714138000e-01 -1.946916247000e-01 -1.020846345198e-03  3.063023752069e-04 -1.864689487707e-04
3
step 2176
H  6.812001477000e-01  2.388811935000e-01 -1.500311297000e-01  1.139545927914e-03  3.026151181714e-04 -2.026631854088e-04
O -5.273303290000e-02 -1.213665426000e-01  6.679964720000e-02 -1.755978124248e-05 -3.934201386889e-05  2.756063939488e-05
H -8.429048453000e-01  3.404353954000e-01 -1.955795658000e-01 -1.017148977046e-03  3.577797485994e-04 -2.165282131284e-04
3
step 2177
H  6.875955615000e-01  2.410253412000e-01 -1.514091451000e-01  1.754154932801e-03  6.634798038983e-04 -4.188352788171e-04
O -5.290057110000e-02 -1.215967132000e-01  6.695492090000e-02 -5.776739714227e-05 -6.468824116528e-05  4.271678165524e-05
H -8.473249363000e-01  3.421022603000e-01 -1.965864122000e-01 -9.935393064865e-04  3.993924987849e-04 -2.410203619577e-04
3
step 2178
H  6.965503454000e-01  2.446871494000e-01 -1.536962588000e-01  2.298076298791e-03  9.908992538893e-04 -6.149257040541e-04
O -5.323854180000e-02 -1.219326143000e-01  6.717345170000e-02 -9.471105156742e-05 -8.735530614119e-05  5.628333490036e-05
H -8.515990744000e-01  3.439303853000e-01 -1.976886783000e-01 -9.510331121329e-04  4.319067804896e-04 -2.603796430049e-04
3
step 2179
H  7.077054872000e-01  2.496964678000e-01 -1.567902154000e-01  2.752564734581e-03  1.275884238112e-03 -7.854966828542e-04
O -5.372936520000e-02 -1.223611390000e-01  6.744744320000e-02 -1.271254837167e-04 -1.068321129126e-04  6.794898920659e-05
H -8.556472037000e-01  3.458817750000e-01 -1.988649333000e-01 -8.909650841450e-04  4.561865136057e-04 -2.750949918058e-04
3
step 2180
H  7.206373927000e-01  2.558521126000e-01 -1.605699557000e-01  3.106855531092e-03  1.513222380309e-03 -9.273830885300e-04
O -5.435098710000e-02 -1.228674770000e-01  6.776805730000e-02 -1.542341397733e-04 -1.228481891280e-04  7.754724027497e-05
H -8.593957005000e-01  3.479223663000e-01 -2.000959700000e-01 -8.148989440852e-04  4.731424939269e-04 -2.856812022068e-04
3
step 2181
H  7.348928501000e-01  2.629383213000e-01 -1.649055270000e-01  3.357613551358e-03  1.701184345967e-03 -1.039519816494e-03
O -5.507903190000e-02 -1.234361547000e-01  6.812604090000e-02 -1.757192829470e-04 -1.353521792776e-04  8.504362711860e-05
H -8.627781929000e-01  3.500221338000e-01 -2.013648624000e-01 -7.245503270909e-04  4.836926937622e-04 -2.926564551869e-04
3
step 2182
H  7.500190800000e-01  2.707387771000e-01 -1.696665494000e-01  3.507512467893e-03  1.840836642980e-03 -1.122531219013e-03
O -5.588866530000e-02 -1.240519121000e-01  6.851225410000e-02 -1.916360764146e-04 -1.444667652064e-04  9.050858472188e-05
H -8.657360702000e-01  3.521550474000e-01 -2.026569379000e-01 -6.217265128580e-04  4.887353477179e-04 -2.965271704675e-04
3
step 2183
H  7.655862676000e-01  2.790470503000e-01 -1.747285340000e-01  3.563465011145e-03  1.935204839954e-03 -1.178228470300e-03
O -5.675599420000e-02 -1.247003494000e-01  6.891806020000e-02 -2.023035094282e-04 -1.504355324737e-04  9.408535541765e-05
H -8.682187755000e-01  3.542989421000e-01 -2.039597020000e-01 -5.082812730174e-04  4.891331186533e-04 -2.977790518671e-04
3
step 2184
H  7.812021251000e-01  2.876733000000e-01 -1.799769499000e-01  3.534917651166e-03  1.988477032417e-03 -1.209129192514e-03
O -5.765897580000e-02 -1.253683381000e-01  6.933557290000e-02 -2.081990259573e-04 -1.535730958570e-04  9.596011721326e-05
H -8.701839202000e-01  3.564353364000e-01 -2.052627324000e-01 -3.860799667582e-04  4.857048561157e-04 -2.968725482696e-04
3
step 2185
H  7.965195014000e-01  2.964477456000e-01 -1.853093394000e-01  3.432452397583e-03  2.005356754263e-03 -1.218066459090e-03
O -5.857789500000e-02 -1.260442315000e-01  6.975778470000e-02 -2.098721733809e-04 -1.542245406126e-04  9.633803617014e-05
H -8.715972706000e-01  3.585492311000e-01 -2.065575639000e-01 -2.569748709848e-04  4.792241061848e-04 -2.942421314014e-04
3
step 2186
H  8.112387096000e-01  3.052217058000e-01 -1.906359633000e-01  3.266774088138e-03  1.990598469788e-03 -1.207908033000e-03
O -5.949551780000e-02 -1.267179208000e-01  7.017860440000e-02 -2.078821942307e-04 -1.527360581858e-04  9.542591934910e-05
H -8.724326469000e-01  3.606289139000e-01 -2.078375762000e-01 -1.227883406465e-04  4.704219775079e-04 -2.902981105302e-04
3
step 2187
H  8.251062739000e-01  3.138670051000e-01 -1.958794588000e-01  3.048053856382e-03  1.948708916376e-03 -1.181375541424e-03
O -6.039702320000e-02 -1.273807888000e-01  7.059283450000e-02 -2.027575588716e-04 -1.494359170173e-04  9.342084209040e-05
H -8.726717625000e-01  3.626657833000e-01 -2.090978944000e-01  1.469808859572e-05  4.599925305432e-04 -2.854298687534e-04
3
step 2188
H  8.379115127000e-01  3.222743997000e-01 -2.009739031000e-01  2.785556035150e-03  1.883778511241e-03 -1.140941741871e-03
O -6.126980160000e-02 -1.280255994000e-01  7.099610830000e-02 -1.949728909479e-04 -1.446238211886e-04  9.050341031716e-05
H -8.723040274000e-01  3.646542005000e-01 -2.103353059000e-01  1.537506940431e-04  4.485990033008e-04 -2.800095335343e-04
3
step 2189
H  8.494820203000e-01  3.303515082000e-01 -2.058635719000e-01  2.487472635036e-03  1.799406944218e-03 -1.088784354793e-03
O -6.210318520000e-02 -1.286463579000e-01  7.138480860000e-02 -1.849386231452e-04 -1.385665450886e-04  8.683468880391e-05
H -8.713263263000e-01  3.665913678000e-01 -2.115481921000e-01  2.926880775649e-04  4.368796394050e-04 -2.743954369709e-04
3
step 2190
H  8.596788014000e-01  3.380205871000e-01 -2.105015992000e-01  2.160901156617e-03  1.698693820867e-03 -1.026779540718e-03
O -6.288815600000e-02 -1.292381627000e-01  7.175597830000e-02 -1.729996670207e-04 -1.314977871413e-04  8.255569836344e-05
H -8.697427827000e-01  3.684772316000e-01 -2.127364759000e-01  4.298844293127e-04  4.254523505431e-04 -2.689348401292e-04
3
step 2191
H  8.683915586000e-01  3.452163788000e-01 -2.148486784000e-01  1.811913357013e-03  1.584270485974e-03 -9.565207968919e-04
O -6.361706460000e-02 -1.297970642000e-01  7.210723410000e-02 -1.594399611769e-04 -1.236205970215e-04  7.778866373769e-05
H -8.675645087000e-01  3.703144014000e-01 -2.139015777000e-01  5.637729651345e-04  4.149173676630e-04 -2.639655009061e-04
3
step 2192
H  8.755344294000e-01  3.518841659000e-01 -2.188718880000e-01  1.445673982362e-03  1.458354208531e-03 -8.793517224094e-04
O -6.428337770000e-02 -1.303199375000e-01  7.243668860000e-02 -1.444901368772e-04 -1.151109867685e-04  7.263923968878e-05
H -8.648093380000e-01  3.721080760000e-01 -2.150463760000e-01  6.928487149023e-04  4.058580043345e-04 -2.598161722716e-04
3
step 2193
H  8.810423120000e-01  3.579780938000e-01 -2.225436788000e-01  1.066580179630e-03  1.322811604761e-03 -7.964043142949e-04
O -6.488146390000e-02 -1.308043734000e-01  7.274288300000e-02 -1.283366601039e-04 -1.061218710121e-04  6.719893364439e-05
H -8.615015524000e-01  3.738659694000e-01 -2.161751679000e-01  8.156735460726e-04  3.988386272123e-04 -2.568054320853e-04
3
step 2194
H  8.848678220000e-01  3.634597795000e-01 -2.258410350000e-01  6.784029151050e-04  1.179222669087e-03 -7.086375881260e-04
O -6.540642160000e-02 -1.312485851000e-01  7.302473070000e-02 -1.111312021671e-04 -9.678673750964e-05  6.154747349070e-05
H -8.576715704000e-01  3.755982191000e-01 -2.172936199000e-01  9.308833173467e-04  3.943994770611e-04 -2.552386662174e-04
3
step 2195
H  8.869788565000e-01  3.682971943000e-01 -2.287447998000e-01  2.844267016076e-04  1.028944901105e-03 -6.168762717931e-04
O -6.585394690000e-02 -1.316513314000e-01  7.328147050000e-02 -9.300011087678e-05 -8.722319426374e-05  5.575503823452e-05
H -8.533556112000e-01  3.773172666000e-01 -2.184087015000e-01  1.037197880082e-03  3.930493642502e-04 -2.554039043413e-04
3
step 2196
H  8.873567732000e-01  3.724638346000e-01 -2.312391744000e-01 -1.124211693796e-04  8.731728112302e-04 -5.218467109314e-04
O -6.622024370000e-02 -1.320118548000e-01  7.351262990000e-02 -7.405326005475e-05 -7.753600468592e-05  4.988410469893e-05
H -8.485952955000e-01  3.790377017000e-01 -2.195285995000e-01  1.133433045247e-03  3.952549039816e-04 -2.575655484821e-04
3
step 2197
H  8.859950853000e-01  3.759381244000e-01 -2.333113578000e-01 -5.094502633788e-04  7.129940255092e-04 -4.242107539585e-04
O -6.650196960000e-02 -1.323298307000e-01  7.371799460000e-02 -5.439251050917e-05 -6.781974793529e-05  4.399112509093e-05
H -8.434372049000e-01  3.807760493000e-01 -2.206625971000e-01  1.218514035956e-03  4.014272374502e-04 -2.619566525486e-04
3
step 2198
H  8.828986937000e-01  3.787030778000e-01 -2.349513430000e-01 -9.040914701615e-04  5.494454909915e-04 -3.245997011055e-04
O -6.669621980000e-02 -1.326053295000e-01  7.389758590000e-02 -3.412005216227e-05 -5.816138326576e-05  3.812810400637e-05
H -8.379323655000e-01  3.825504972000e-01 -2.218209206000e-01  1.291492848240e-03  4.119068880254e-04 -2.687701642418e-04
3
step 2199
H  8.780835933000e-01  3.807461928000e-01 -2.361518535000e-01 -1.293786915088e-03  3.835687806079e-04 -2.236477506359e-04
O -6.680054620000e-02 -1.328387873000e-01  7.405164460000e-02 -1.334657705004e-05 -4.864253554050e-05  3.234400173589e-05
H -8.321356544000e-01  3.843805498000e-01 -2.230145417000e-01  1.351567627638e-03  4.269451754474e-04 -2.781481237142e-04
3
step 2200
H  8.715770684000e-01  3.820595980000e-01 -2.369084319000e-01 -1.675884089508e-03  2.164657088791e-04 -1.220255776239e-04
O -6.681301260000e-02 -1.330309889000e-01  7.418062070000e-02  7.800863079071e-06 -3.934184474082e-05  2.668616499688e-05
H -8.261051147000e-01  3.862865941000e-01 -2.242549295000e-01  1.398101725814e-03  4.466856985895e-04 -2.901708622275e-04
3
step 2201
H  8.634183253000e-01  3.826404334000e-01 -2.372196707000e-01 -2.047530927361e-03  4.935753131099e-05 -2.047597426690e-05
O -6.673228270000e-02 -1.331830586000e-01  7.428516900000e-02  2.917110429913e-05 -3.033744803485e-05  2.120189936750e-05
H -8.199011947000e-01  3.882893914000e-01 -2.255537587000e-01  1.430641523002e-03  4.711459279240e-04 -3.048462648068e-04
3
step 2202
H  8.536596063000e-01  3.824915142000e-01 -2.370876124000e-01 -2.405568870528e-03 -1.163510292032e-04  8.014749749447e-05
O -6.655774310000e-02 -1.332964648000e-01  7.436615350000e-02  5.058106318935e-05 -2.170987780985e-05  1.594022913277e-05
H -8.135859069000e-01  3.904094814000e-01 -2.269225675000e-01  1.448933825340e-03  5.001988711259e-04 -3.220990557479e-04
3
step 2203
H  8.423677573000e-01  3.816222729000e-01 -2.365183187000e-01 -2.746427209498e-03 -2.790039483142e-04  1.788395678410e-04
O -6.628965960000e-02 -1.333730366000e-01  7.442465820000e-02  7.180819006539e-05 -1.354529796071e-05  1.095392682140e-05
H -8.072219152000e-01  3.926665142000e-01 -2.283723719000e-01  1.452939829363e-03  5.335578149781e-04 -3.417618942537e-04
3
step 2204
H  8.296262671000e-01  3.800500162000e-01 -2.355226293000e-01 -3.066015463062e-03 -4.366189627685e-04  2.743980470284e-04
O -6.592936650000e-02 -1.334149965000e-01  7.446200870000e-02  9.258326046671e-05 -5.939558392559e-06  6.301999845565e-06
H -8.008715718000e-01  3.950785205000e-01 -2.299132456000e-01  1.442841955693e-03  5.707664062386e-04 -3.635694915195e-04
3
step 2205
H  8.155377763000e-01  3.778015229000e-01 -2.341171259000e-01 -3.359618710895e-03 -5.868074585560e-04  3.653753816226e-04
O -6.547948530000e-02 -1.334250123000e-01  7.447980550000e-02  1.125837288806e-04  9.970145409171e-07  2.052615959326e-06
H -7.945959442000e-01  3.976611569000e-01 -2.315538831000e-01  1.419045430614e-03  6.111943183055e-04 -3.871559961048e-04
3
step 2206
H  8.002270331000e-01  3.749150020000e-01 -2.323253152000e-01 -3.621802717280e-03 -7.266920095484e-04  4.500287525773e-04
O -6.494417270000e-02 -1.334062718000e-01  7.447997070000e-02  1.314280012429e-04  7.134132802805e-06 -1.713596458435e-06
H -7.884538386000e-01  4.004269384000e-01 -2.333011567000e-01  1.382173523058e-03  6.540400578283e-04 -4.120565069435e-04
3
step 2207
H  7.838442317000e-01  3.714424119000e-01 -2.301790300000e-01 -3.846342060817e-03 -8.528281991920e-04  5.262729524971e-04
O -6.432938970000e-02 -1.333625832000e-01  7.446481020000e-02  1.486717918282e-04  1.231558605126e-05 -4.900097277218e-06
H -7.825008685000e-01  4.033845077000e-01 -2.351596928000e-01  1.333053616685e-03  6.983435578926e-04 -4.377142544309e-04
3
step 2208
H  7.665685974000e-01  3.674521028000e-01 -2.277200242000e-01 -4.026193389338e-03 -9.611434692828e-04  5.916441282361e-04
O -6.364318080000e-02 -1.332985011000e-01  7.443709110000e-02  1.638076981436e-04  1.635368783940e-05 -7.391367454504e-06
H -7.767885996000e-01  4.065379788000e-01 -2.371314913000e-01  1.272696457406e-03  7.430080961041e-04 -4.634932118918e-04
3
step 2209
H  7.486119593000e-01  3.630316712000e-01 -2.250016913000e-01 -4.153544979000e-03 -1.046912966650e-03  6.432863009337e-04
O -6.289594700000e-02 -1.332194759000e-01  7.440013010000e-02  1.762699776545e-04  1.902560050803e-05 -9.051021200817e-06
H -7.713638008000e-01  4.098863970000e-01 -2.392156130000e-01  1.202269234596e-03  7.868313638715e-04 -4.886960277273e-04
3
step 2210
H  7.302219012000e-01  3.582908134000e-01 -2.220907770000e-01 -4.219981062772e-03 -1.104800229883e-03  6.779765340997e-04
O -6.210068360000e-02 -1.331320125000e-01  7.435788780000e-02  1.854468758493e-04  2.007355002405e-05 -9.722089383516e-06
H -7.662678240000e-01  4.134233552000e-01 -2.414079554000e-01  1.123064283262e-03  8.285448092528e-04 -5.125867982806e-04
3
step 2211
H  7.116838965000e-01  3.533638240000e-01 -2.190688779000e-01 -4.216806272929e-03 -1.128997359936e-03  6.922093925154e-04
O -6.127314500000e-02 -1.330438170000e-01  7.431505440000e-02  1.907032025513e-04  1.921145854336e-05 -9.230863762105e-06
H -7.615361291000e-01  4.171367980000e-01 -2.437011396000e-01  1.036465724669e-03  8.668589541357e-04 -5.344174106770e-04
3
step 2212
H  6.933216202000e-01  3.484112227000e-01 -2.160334152000e-01 -4.135579217254e-03 -1.113504986502e-03  6.823661845789e-04
O -6.043188470000e-02 -1.329638976000e-01  7.427711060000e-02  1.914161687849e-04  1.614034877828e-05 -7.395988764728e-06
H -7.571979560000e-01  4.210090343000e-01 -2.460845166000e-01  9.439164360895e-04  9.005118974251e-04 -5.534557689267e-04
3
step 2213
H  6.754944145000e-01  3.436198034000e-01 -2.130976518000e-01 -3.968897009298e-03 -1.052594842430e-03  6.449950612436e-04
O -5.959810710000e-02 -1.329025766000e-01  7.425033390000e-02  1.870268245646e-04  1.057486510730e-05 -4.044460089343e-06
H -7.532761381000e-01  4.250169660000e-01 -2.485443010000e-01  8.468877311647e-04  9.283174296936e-04 -5.690139240373e-04
3
step 2214
H  6.585907350000e-01  3.392002126000e-01 -2.103892150000e-01 -3.711442491108e-03 -9.414854989228e-04  5.772189666343e-04
O -5.879525690000e-02 -1.328713594000e-01  7.424171850000e-02  1.771077284062e-04  2.282588994628e-06  9.644048206999e-07
H -7.497870404000e-01  4.291325220000e-01 -2.510638238000e-01  7.468533553247e-04  9.492090064797e-04 -5.804738409035e-04
3
step 2215
H  6.430164532000e-01  3.353810851000e-01 -2.080465442000e-01 -3.361240717648e-03 -7.772195597024e-04  4.772636833074e-04
O -5.804827900000e-02 -1.328826022000e-01  7.425877310000e-02  1.614432648764e-04 -8.864006695175e-06  7.707554666008e-06
H -7.467405999000e-01  4.333232710000e-01 -2.536238912000e-01  6.452681802207e-04  9.622764856467e-04 -5.873090786971e-04
3
step 2216
H  6.291773072000e-01  3.323989469000e-01 -2.062127926000e-01 -2.920965635692e-03 -5.596520500157e-04  3.450528613671e-04
O -5.738250480000e-02 -1.329489262000e-01  7.430916550000e-02  1.401128190340e-04 -2.282787377283e-05  1.616222115160e-05
H -7.441404502000e-01  4.375531774000e-01 -2.562032276000e-01  5.435504909887e-04  9.667937546820e-04 -5.891011185826e-04
3
step 2217
H  6.174557692000e-01  3.304837014000e-01 -2.050270677000e-01 -2.399016131463e-03 -2.923637950612e-04  1.827585988972e-04
O -5.682218460000e-02 -1.330823635000e-01  7.440020490000e-02  1.135593190090e-04 -3.935088166497e-05  2.617207508888e-05
H -7.419841173000e-01  4.417834560000e-01 -2.587789767000e-01  4.430683325860e-04  9.622346698743e-04 -5.855488074625e-04
3
step 2218
H  6.081840807000e-01  3.298405400000e-01 -2.046135151000e-01 -1.810000628252e-03  1.676481075025e-05 -4.853276228132e-06
O -5.638877390000e-02 -1.332932766000e-01  7.453819120000e-02  8.262075324684e-05 -5.791745945023e-05  3.742556886068e-05
H -7.402632633000e-01  4.459734669000e-01 -2.613272276000e-01  3.451260115427e-04  9.482788112393e-04 -5.764718548147e-04
3
step 2219
H  6.016168790000e-01  3.306304064000e-01 -2.050695375000e-01 -1.174302194163e-03  3.555953087374e-04 -2.104495811813e-04
O -5.609918980000e-02 -1.335891856000e-01  7.472770730000e-02  4.850384138143e-05 -7.775636484743e-05  4.945714774394e-05
H -7.389640006000e-01  4.500816211000e-01 -2.638235464000e-01  2.509497292180e-04  9.248075057245e-04 -5.618084603284e-04
3
step 2220
H  5.979080381000e-01  3.329522710000e-01 -2.064551099000e-01 -5.165766665718e-04  7.085606577095e-04 -4.246306943841e-04
O -5.596432820000e-02 -1.339737042000e-01  7.497097910000e-02  1.269041042157e-05 -9.789182031596e-05  6.167809521273e-05
H -7.380672612000e-01  4.540662401000e-01 -2.662434815000e-01  1.616732744799e-04  8.918899587077e-04 -5.416071866147e-04
3
step 2221
H  5.970964380000e-01  3.368308542000e-01 -2.087853810000e-01  1.366490761700e-04  1.058231606725e-03 -6.368746832439e-04
O -5.598813900000e-02 -1.344458139000e-01  7.526743780000e-02 -2.321285496937e-05 -1.172410633836e-04  7.343522037840e-05
H -7.375492358000e-01  4.578863405000e-01 -2.685630237000e-01  7.832090520147e-05  8.497631094720e-04 -5.160149465426e-04
3
step 2222
H  5.991038220000e-01  3.422126072000e-01 -2.120282506000e-01  7.597980200871e-04  1.387316113419e-03 -8.367418936885e-04
O -5.616745850000e-02 -1.349996532000e-01  7.561359340000e-02 -5.765088161545e-05 -1.347393825714e-04  8.408610169640e-05
H -7.373818933000e-01  4.615023174000e-01 -2.707590070000e-01  1.785439319755e-06  7.988124328853e-04 -4.852655436696e-04
3
step 2223
H  6.037452519000e-01  3.489709316000e-01 -2.161075127000e-01  1.330838523503e-03  1.680613947956e-03 -1.015052735187e-03
O -5.649262830000e-02 -1.356248866000e-01  7.600325550000e-02 -8.928246564115e-05 -1.494620130214e-04  9.307248397746e-05
H -7.375336118000e-01  4.648765605000e-01 -2.728094685000e-01 -6.719251134877e-05  7.395487414278e-04 -4.496658174532e-04
3
step 2224
H  6.107496773000e-01  3.569192650000e-01 -2.209107386000e-01  1.833091477889e-03  1.926473708498e-03 -1.164766058807e-03
O -5.694874840000e-02 -1.363075602000e-01  7.642804890000e-02 -1.170929163368e-04 -1.607143868911e-04  9.997461877915e-05
H -7.379698792000e-01  4.679739347000e-01 -2.746939269000e-01 -1.280442193876e-04  6.725849643655e-04 -4.095816787572e-04
3
step 2225
H  6.197862048000e-01  3.658290504000e-01 -2.263001068000e-01  2.255981227348e-03  2.117499813102e-03 -1.281405830764e-03
O -5.751728090000e-02 -1.370312604000e-01  7.687811000000e-02 -1.404399675728e-04 -1.680751604491e-04  1.045371455716e-04
H -7.386540967000e-01  4.707621935000e-01 -2.763936215000e-01 -1.803919486810e-04  5.986195914835e-04 -3.654281312962e-04
3
step 2226
H  6.304912390000e-01  3.754490083000e-01 -2.321240200000e-01  2.594794684540e-03  2.250503854831e-03 -1.363032046967e-03
O -5.817770550000e-02 -1.377783464000e-01  7.734282890000e-02 -1.590376192126e-04 -1.713915607674e-04  1.066662531287e-04
H -7.395484468000e-01  4.732123141000e-01 -2.778917027000e-01 -2.240601900031e-04  5.184206973400e-04 -3.176596313349e-04
3
step 2227
H  6.424926434000e-01  3.855226808000e-01 -2.382276800000e-01  2.849744580577e-03  2.325894428815e-03 -1.409873098877e-03
O -5.890898180000e-02 -1.385310677000e-01  7.781152130000e-02 -1.728968097283e-04 -1.707398188949e-04  1.064059604586e-04
H -7.406147948000e-01  4.752987712000e-01 -2.791733863000e-01 -2.590791030025e-04  4.328128955497e-04 -2.667622666583e-04
3
step 2228
H  6.554286843000e-01  3.958023640000e-01 -2.444614882000e-01  3.024701909574e-03  2.346775227115e-03 -1.423783215225e-03
O -5.969068490000e-02 -1.392724505000e-01  7.827396240000e-02 -1.822461179914e-04 -1.663682194088e-04  1.039040260709e-04
H -7.418155871000e-01  4.769997581000e-01 -2.802260766000e-01 -2.856789532606e-04  3.426660437714e-04 -2.132471560056e-04
3
step 2229
H  6.689610992000e-01  4.060587595000e-01 -2.506868724000e-01  3.125909947367e-03  2.317996961611e-03 -1.407672527854e-03
O -6.050377470000e-02 -1.399869169000e-01  7.872076100000e-02 -1.874519988183e-04 -1.586377181777e-04  9.937646764957e-05
H -7.431147042000e-01  4.782973613000e-01 -2.810394621000e-01 -3.042764312013e-04  2.488851965864e-04 -1.576446347216e-04
3
step 2230
H  6.827827878000e-01  4.160866108000e-01 -2.567796998000e-01  3.160880549162e-03  2.245328394201e-03 -1.365008249036e-03
O -6.133103330000e-02 -1.406606519000e-01  7.914358250000e-02 -1.889507843443e-04 -1.479699149106e-04  9.307622307910e-05
H -7.444782387000e-01  4.791776940000e-01 -2.816055878000e-01 -3.154555040514e-04  1.524019525409e-04 -1.004994231789e-04
3
step 2231
H  6.966212222000e-01  4.257071007000e-01 -2.626317389000e-01  3.137553637879e-03  2.134819016522e-03 -1.299430179387e-03
O -6.215723860000e-02 -1.412817668000e-01  7.953524920000e-02 -1.871971868119e-04 -1.348062932926e-04  8.526844403329e-05
H -7.458751812000e-01  4.796309950000e-01 -2.819189089000e-01 -3.199433905129e-04  5.416555435295e-05 -4.236567178289e-05
3
step 2232
H  7.102387825000e-01  4.347679105000e-01 -2.681507080000e-01  3.063717858238e-03  1.992358311346e-03 -1.214484399713e-03
O -6.296915190000e-02 -1.418403101000e-01  7.988974660000e-02 -1.826290422249e-04 -1.195794006468e-04  7.621284266151e-05
H -7.472779881000e-01  4.796516840000e-01 -2.819763198000e-01 -3.185863068830e-04 -4.486444301861e-05  1.619703410775e-05
3
step 2233
H  7.234310974000e-01  4.431417602000e-01 -2.732594065000e-01  2.946650045991e-03  1.823403406102e-03 -1.113458718547e-03
O -6.375538250000e-02 -1.423281781000e-01  8.020216980000e-02 -1.756457762312e-04 -1.026946506691e-04  6.615263884083e-05
H -7.486630551000e-01  4.792383968000e-01 -2.817771725000e-01 -3.123265204894e-04 -1.437241695634e-04  7.462697903483e-05
3
step 2234
H  7.360242248000e-01  4.507240853000e-01 -2.778943237000e-01  2.792921836840e-03  1.632837562970e-03 -9.992970476333e-04
O -6.450618680000e-02 -1.427389669000e-01  8.046863280000e-02 -1.665975662131e-04 -8.452059627806e-05  5.530879610858e-05
H -7.500110841000e-01  4.783939876000e-01 -2.813232767000e-01 -3.021791380054e-04 -2.414524521782e-04  1.323642210994e-04
3
step 2235
H  7.478713001000e-01  4.574303381000e-01 -2.820040202000e-01  2.608328724056e-03  1.424923622943e-03 -8.745709564128e-04
O -6.521323860000e-02 -1.430677980000e-01  8.068616410000e-02 -1.557822375592e-04 -6.538560647727e-05  4.387816125357e-05
H -7.513073538000e-01  4.771255031000e-01 -2.806188843000e-01 -2.892110284357e-04 -3.370975706475e-04  1.888544316260e-04
3
step 2236
H  7.588490966000e-01  4.631932571000e-01 -2.855474886000e-01  2.397902560256e-03  1.203321051203e-03 -7.414894814546e-04
O -6.586940060000e-02 -1.433111410000e-01  8.085260030000e-02 -1.434474120473e-04 -4.557872113756e-05  3.203403569473e-05
H -7.525419019000e-01  4.754441259000e-01 -2.796706559000e-01 -2.745216247949e-04 -4.297243427383e-04  2.435529222391e-04
3
step 2237
H  7.688547821000e-01  4.679603179000e-01 -2.884926205000e-01  2.165973330278e-03  9.711400763783e-04 -6.019314299149e-04
O -6.646851320000e-02 -1.434666466000e-01  8.096648640000e-02 -1.297955908289e-04 -2.535275472566e-05  1.992808617116e-05
H -7.537096280000e-01  4.733650863000e-01 -2.784876099000e-01 -2.592248685433e-04 -5.184221737824e-04  2.959293164548e-04
3
step 2238
H  7.778030203000e-01  4.716914758000e-01 -2.908148491000e-01  1.916255475066e-03  7.310135242708e-04 -4.574883289251e-04
O -6.700521130000e-02 -1.435329970000e-01  8.102698630000e-02 -1.149906452904e-04 -4.928460511582e-06  7.692817668814e-06
H -7.548103178000e-01  4.709075353000e-01 -2.770810480000e-01 -2.444336178075e-04 -6.023132342464e-04  3.454722578403e-04
3
step 2239
H  7.856234835000e-01  4.743572455000e-01 -2.924959933000e-01  1.651942854796e-03  4.851742465092e-04 -3.095108169644e-04
O -6.747476930000e-02 -1.435097744000e-01  8.103380450000e-02 -9.916481529812e-05  1.550119551941e-05 -4.555903371606e-06
H -7.558486092000e-01  4.680943847000e-01 -2.754644633000e-01 -2.312432739544e-04 -6.805627491184e-04  3.916953980620e-04
3
step 2240
H  7.922587841000e-01  4.759371216000e-01 -2.935233056000e-01  1.375804425079e-03  2.355316167200e-04 -1.591545735581e-04
O -6.787297930000e-02 -1.433973496000e-01  8.098711870000e-02 -8.242585371633e-05  3.576702587440e-05 -1.671645383545e-05
H -7.568338733000e-01  4.649520906000e-01 -2.736534136000e-01 -2.207139225819e-04 -7.523916459447e-04  4.341448019524e-04
3
step 2241
H  7.976628248000e-01  4.764183273000e-01 -2.938887176000e-01  1.090276571750e-03 -1.625628378443e-05 -7.423707484016e-06
O -6.819605860000e-02 -1.431967856000e-01  8.088752270000e-02 -6.486386466689e-05  5.571991901943e-05 -2.869926898234e-05
H -7.577800248000e-01  4.615103822000e-01 -2.716653641000e-01 -2.138532927227e-04 -8.170896782539e-04  4.724066085543e-04
3
step 2242
H  8.017995383000e-01  4.757948667000e-01 -2.935882687000e-01  7.975520448009e-04 -2.687146902350e-04  1.447882776666e-04
O -6.844058770000e-02 -1.429097577000e-01  8.073597810000e-02 -4.655816464336e-05  7.522757109386e-05 -4.042481290929e-05
H -7.587052533000e-01  4.578019308000e-01 -2.695194944000e-01 -2.115972294088e-04 -8.740307247905e-04  5.061159674824e-04
3
step 2243
H  8.046420153000e-01  4.740668682000e-01 -2.926217094000e-01  4.996681929540e-04 -5.204872229403e-04  2.966593052001e-04
O -6.860347820000e-02 -1.425384868000e-01  8.053377470000e-02 -2.758416648066e-05  9.417151931253e-05 -5.182178213641e-05
H -7.596316624000e-01  4.538619447000e-01 -2.672364622000e-01 -2.147878258695e-04 -9.226903742632e-04  5.349673145965e-04
3
step 2244
H  8.061720172000e-01  4.712402053000e-01 -2.909922728000e-01  1.985917288227e-04 -7.702748091982e-04  4.474017914069e-04
O -6.868197030000e-02 -1.420856849000e-01  8.028249790000e-02 -8.020171903936e-06  1.124443490672e-04 -6.282542346820e-05
H -7.605848111000e-01  4.497276841000e-01 -2.648381211000e-01 -2.241509112138e-04 -9.626626461687e-04  5.587241540029e-04
3
step 2245
H  8.063798449000e-01  4.673263743000e-01 -2.887066015000e-01 -1.036965424978e-04 -1.016777727221e-03  5.962274989204e-04
O -6.867366080000e-02 -1.415545127000e-01  7.998400410000e-02  1.204568050743e-05  1.299473307045e-04 -7.337605298023e-05
H -7.615931544000e-01  4.454379100000e-01 -2.623471984000e-01 -2.402701921198e-04 -9.936802450207e-04  5.772308924487e-04
3
step 2246
H  8.052645931000e-01  4.623426223000e-01 -2.857748261000e-01 -4.051131414611e-04 -1.258636347314e-03  7.423116404268e-04
O -6.857656140000e-02 -1.409485463000e-01  7.964040130000e-02  3.250827537272e-05  1.465877546161e-04 -8.341739673565e-05
H -7.626873591000e-01  4.410322218000e-01 -2.597869092000e-01 -2.635627704043e-04 -1.015630769218e-03  5.904223013515e-04
3
step 2247
H  8.028347949000e-01  4.563123434000e-01 -2.822108067000e-01 -7.033799678228e-04 -1.494371356536e-03  8.847565207013e-04
O -6.838918850000e-02 -1.402717577000e-01  7.925403810000e-02  5.323820686359e-05  1.622759783543e-04 -9.289480808387e-05
H -7.638995303000e-01  4.365503638000e-01 -2.571805516000e-01 -2.942548160066e-04 -1.028570154442e-03  5.983313835400e-04
3
step 2248
H  7.991094803000e-01  4.492657297000e-01 -2.780325296000e-01 -9.959258178233e-04 -1.722323526247e-03  1.022554918095e-03
O -6.811068630000e-02 -1.395285073000e-01  7.882750060000e-02  7.407402623907e-05  1.769225834514e-04 -1.017534803883e-04
H -7.652623138000e-01  4.320314460000e-01 -2.545510518000e-01 -3.323568102959e-04 -1.032736441594e-03  6.010974045517e-04
3
step 2249
H  7.941196821000e-01  4.412406948000e-01 -2.732626689000e-01 -1.279779723799e-03 -1.940590133665e-03  1.154551244504e-03
O -6.774098410000e-02 -1.387235498000e-01  7.836361730000e-02  9.481432939453e-05  1.904347094554e-04 -1.099362209353e-04
H -7.668079067000e-01  4.275131298000e-01 -2.519204894000e-01 -3.776445214491e-04 -1.028555326025e-03  5.989691014958e-04
3
step 2250
H  7.879104286000e-01  4.322840814000e-01 -2.679293229000e-01 -1.551455014604e-03 -2.146958668242e-03  1.279401055193e-03
O -6.728098840000e-02 -1.378620579000e-01  7.786547460000e-02  1.152095701489e-04  2.027119262900e-04 -1.173809094420e-04
H -7.685669923000e-01  4.230308000000e-01 -2.493096139000e-01 -4.296444274400e-04 -1.016639951838e-03  5.923045596345e-04
3
step 2251
H  7.805432638000e-01  4.224531640000e-01 -2.620669309000e-01 -1.806824663655e-03 -2.338838979302e-03  1.395529466146e-03
O -6.673281220000e-02 -1.369496654000e-01  7.733644450000e-02  1.349539009580e-04  2.136413341123e-04 -1.240175223166e-04
H -7.705676241000e-01  4.186167525000e-01 -2.467373714000e-01 -4.876283176533e-04 -9.977817652639e-04  5.815658322830e-04
3
step 2252
H  7.720993305000e-01  4.118174510000e-01 -2.557173725000e-01 -2.040992152789e-03 -2.513196964130e-03  1.501090458199e-03
O -6.610003850000e-02 -1.359925328000e-01  7.678022640000e-02  1.536772238955e-04  2.230921649275e-04 -1.297649192250e-04
H -7.728341131000e-01  4.142994462000e-01 -2.442204680000e-01 -5.506162823384e-04 -9.729327836340e-04  5.673085645730e-04
3
step 2253
H  7.626830210000e-01  4.004607678000e-01 -2.489312410000e-01 -2.248167761943e-03 -2.666496904442e-03  1.593931323570e-03
O -6.538801900000e-02 -1.349974382000e-01  7.620090220000e-02  1.709381375550e-04  2.309102287883e-04 -1.345274879555e-04
H -7.753859378000e-01  4.101028463000e-01 -2.417729874000e-01 -6.173893972140e-04 -9.431790605615e-04  5.501664153865e-04
3
step 2254
H  7.524261426000e-01  3.884835630000e-01 -2.417692539000e-01 -2.421569002995e-03 -2.794665240977e-03  1.671570080415e-03
O -6.460419910000e-02 -1.339718916000e-01  7.560300790000e-02  1.862191968933e-04  2.369130456499e-04 -1.381922646708e-04
H -7.782367427000e-01  4.060459078000e-01 -2.394060909000e-01 -6.865153806536e-04 -9.097043645443e-04  5.308297837876e-04
3
step 2255
H  7.414924396000e-01  3.760053089000e-01 -2.343037239000e-01 -2.553376006528e-03 -2.893095075967e-03  1.731197406364e-03
O -6.375845850000e-02 -1.329242678000e-01  7.499161420000e-02  1.989263098545e-04  2.408871804595e-04 -1.406273111925e-04
H -7.813934726000e-01  4.021422371000e-01 -2.371278207000e-01 -7.563853447581e-04 -8.737463839374e-04  5.100201289815e-04
3
step 2256
H  7.300821491000e-01  3.631667678000e-01 -2.266199522000e-01 -2.634785139998e-03 -2.956716896088e-03  1.769718600572e-03
O -6.286344160000e-02 -1.318639445000e-01  7.437241130000e-02  2.083951688077e-04  2.425898155906e-04 -1.416825926389e-04
H -7.848556931000e-01  3.983999585000e-01 -2.349430246000e-01 -8.252613477689e-04 -8.365473049880e-04  4.884610037050e-04
3
step 2257
H  7.184360539000e-01  3.501317740000e-01 -2.188173323000e-01 -2.656214438912e-03 -2.980164679088e-03  1.783853414989e-03
O -6.193484140000e-02 -1.308014214000e-01  7.375178310000e-02  2.139079439443e-04  2.417565170210e-04 -1.411946627293e-04
H -7.886151408000e-01  3.948218082000e-01 -2.328534132000e-01 -8.913334633645e-04 -7.993012770007e-04  4.668472729172e-04
3
step 2258
H  7.068382406000e-01  3.370880468000e-01 -2.110098701000e-01 -2.607726395006e-03 -2.958070322895e-03  1.770314086792e-03
O -6.099158350000e-02 -1.297483900000e-01  7.313685000000e-02  2.147242062892e-04  2.381173060704e-04 -1.389964869255e-04
H -7.926555428000e-01  3.914054609000e-01 -2.308577538000e-01 -9.527840219003e-04 -7.631020923404e-04  4.458144924772e-04
3
step 2259
H  6.956164529000e-01  3.242463956000e-01 -2.033257296000e-01 -2.479741891540e-03 -2.885519957721e-03  1.726082411305e-03
O -6.005584030000e-02 -1.287177128000e-01  7.253545750000e-02  2.101301668234e-04  2.314226914100e-04 -1.349334638878e-04
H -7.969527299000e-01  3.881440811000e-01 -2.289521954000e-01 -1.007855901581e-03 -7.288948752279e-04  4.259106876115e-04
3
step 2260
H  6.851386020000e-01  3.118375396000e-01 -1.959053284000e-01 -2.264106162664e-03 -2.758691462895e-03  1.648798398301e-03
O -5.915278380000e-02 -1.277232644000e-01  7.195607900000e-02  1.995099433963e-04  2.214807675333e-04 -1.288862669065e-04
H -8.014750531000e-01  3.850270730000e-01 -2.271307094000e-01 -1.054921496143e-03 -6.974354178667e-04  4.075726704137e-04
3
step 2261
H  6.758037918000e-01  3.001057347000e-01 -1.888974822000e-01 -1.955511009639e-03 -2.575653240446e-03  1.537248910420e-03
O -5.830997570000e-02 -1.267795866000e-01  7.140760410000e-02  1.824390885477e-04  2.082047488855e-04 -1.207997785152e-04
H -8.061841001000e-01  3.820409876000e-01 -2.253856227000e-01 -1.092548825649e-03 -6.692602493457e-04  3.911086699337e-04
3
step 2262
H  6.680263846000e-01  2.892986033000e-01 -1.824532244000e-01 -1.553157220058e-03 -2.337234369886e-03  1.391900768562e-03
O -5.755630220000e-02 -1.259013136000e-01  7.089898850000e-02  1.587930143137e-04  1.916660395090e-04 -1.107153482413e-04
H -8.110356911000e-01  3.791705338000e-01 -2.237082094000e-01 -1.119561567806e-03 -6.446694942807e-04  3.766884998954e-04
3
step 2263
H  6.622124779000e-01  2.796531459000e-01 -1.767172856000e-01 -1.062377639648e-03 -2.047790255544e-03  1.215371270742e-03
O -5.692041530000e-02 -1.251023621000e-01  7.043876010000e-02  1.288524641478e-04  1.721423476942e-04 -9.880009290169e-05
H -8.159811203000e-01  3.763996363000e-01 -2.220893101000e-01 -1.135087277753e-03 -6.237245370191e-04  3.643424205104e-04
3
step 2264
H  6.587297675000e-01  2.713788718000e-01 -1.718177959000e-01 -4.957848387785e-04 -1.715620276913e-03  1.012689033284e-03
O -5.642874450000e-02 -1.243949363000e-01  7.003441210000e-02  9.337821267482e-05  1.501451807176e-04 -8.536413395242e-05
H -8.209685732000e-01  3.737124670000e-01 -2.205199345000e-01 -1.138591625067e-03 -6.062593669329e-04  3.539680315888e-04
3
step 2265
H  6.578739812000e-01  2.646401559000e-01 -1.678554818000e-01  1.265528297864e-04 -1.352794464370e-03  7.911964770676e-04
O -5.610328450000e-02 -1.237884769000e-01  6.969175860000e-02  5.362326119660e-05  1.264109450491e-04 -7.085580705071e-05
H -8.259446681000e-01  3.710944030000e-01 -2.189918190000e-01 -1.129894355793e-03 -5.919045214688e-04  3.453444975824e-04
3
step 2266
H  6.598372015000e-01  2.595408853000e-01 -1.648942214000e-01  7.782753805302e-04 -9.742530293420e-04  5.600078954740e-04
O -5.595950000000e-02 -1.232887438000e-01  6.941436950000e-02  1.125902928781e-05  1.018464871135e-04 -5.582904776354e-05
H -8.308560133000e-01  3.685328496000e-01 -2.174979059000e-01 -1.109162627888e-03 -5.801208294831e-04  3.381525046957e-04
3
step 2267
H  6.646844863000e-01  2.561146965000e-01 -1.629549843000e-01  1.429243866919e-03 -5.962658681371e-04  3.290726997258e-04
O -5.600475940000e-02 -1.228972422000e-01  6.920321170000e-02 -3.178459464731e-05  7.743458726758e-05 -4.088593373433e-05
H -8.356506897000e-01  3.660179020000e-01 -2.160327259000e-01 -1.076885408884e-03 -5.702413550033e-04  3.319988804484e-04
3
step 2268
H  6.723441788000e-01  2.543231028000e-01 -1.620145836000e-01  2.048951680853e-03 -2.345630796892e-04  1.080325473819e-04
O -5.623763950000e-02 -1.226111320000e-01  6.905658630000e-02 -7.353688463230e-05  5.411880186929e-05 -2.660616741999e-05
H -8.402795845000e-01  3.635428015000e-01 -2.145926617000e-01 -1.033831107026e-03 -5.615160516093e-04  3.264427719577e-04
3
step 2269
H  6.826143810000e-01  2.540620901000e-01 -1.620096169000e-01  2.610023158762e-03  9.741152402466e-05 -9.485111246414e-05
O -5.664826340000e-02 -1.224236613000e-01  6.897038740000e-02 -1.122101935404e-04  3.269583840183e-05 -1.348084188210e-05
H -8.446975028000e-01  3.611042069000e-01 -2.131761019000e-01 -9.809928834754e-04 -5.531536422001e-04  3.210201877924e-04
3
step 2270
H  6.951838783000e-01  2.551755282000e-01 -1.628446034000e-01  3.090954384257e-03  3.897085637797e-04 -2.734432779367e-04
O -5.721956450000e-02 -1.223250183000e-01  6.893861870000e-02 -1.463763810975e-04  1.374193905323e-05 -1.866808205315e-06
H -8.488640227000e-01  3.587022839000e-01 -2.117834895000e-01 -9.195306733869e-04 -5.443605184502e-04  3.152667114156e-04
3
step 2271
H  7.096625966000e-01  2.574723382000e-01 -1.644024548000e-01  3.477566967303e-03  6.363461580267e-04 -4.240327032406e-04
O -5.792916870000e-02 -1.223034088000e-01  6.895405140000e-02 -1.750622935333e-04 -2.414563741210e-06  8.030708125565e-06
H -8.527440997000e-01  3.563406359000e-01 -2.104172770000e-01 -8.507136915013e-04 -5.343740133286e-04  3.087368732052e-04
3
step 2272
H  7.256152498000e-01  2.607440439000e-01 -1.665552139000e-01  3.763099807625e-03  8.350941748987e-04 -5.452072649868e-04
O -5.875149350000e-02 -1.223461476000e-01  6.900889350000e-02 -1.977588553588e-04 -1.567757324078e-05  1.614890117337e-05
H -8.563084183000e-01  3.540261025000e-01 -2.090818056000e-01 -7.758689577915e-04 -5.224878297328e-04  3.010189377325e-04
3
step 2273
H  7.425925989000e-01  2.647800511000e-01 -1.691734354000e-01  3.947249978565e-03  9.867888887052e-04 -6.374410657226e-04
O -5.965971000000e-02 -1.224405996000e-01  6.909536670000e-02 -2.143631498580e-04 -2.613867458066e-05  2.254032862845e-05
H -8.595335466000e-01  3.517684677000e-01 -2.077831310000e-01 -6.963384349236e-04 -5.080698675015e-04  2.917452160034e-04
3
step 2274
H  7.601567069000e-01  2.693792016000e-01 -1.721333109000e-01  4.034637981276e-03  1.094445203840e-03 -7.025545771332e-04
O -6.062733510000e-02 -1.225748811000e-01  6.920613860000e-02 -2.250836205200e-04 -3.402083797986e-05  2.733845996386e-05
H -8.624019124000e-01  3.495801024000e-01 -2.065288118000e-01 -6.134426382965e-04 -4.905740075272e-04  2.805989265725e-04
3
step 2275
H  7.778987679000e-01  2.743572840000e-01 -1.753213255000e-01  4.033145563193e-03  1.162386801693e-03 -7.431815620800e-04
O -6.162936390000e-02 -1.227383079000e-01  6.933459910000e-02 -2.303368434933e-04 -3.962395493183e-05  3.072438106074e-05
H -8.649016390000e-01  3.474755698000e-01 -2.053276758000e-01 -5.284516328626e-04 -4.695461409433e-04  2.673176466704e-04
3
step 2276
H  7.954498162000e-01  2.795509754000e-01 -1.786367182000e-01  3.952436231394e-03  1.195526674413e-03 -7.623263110275e-04
O -6.264295870000e-02 -1.229216210000e-01  6.947500040000e-02 -2.306558510297e-04 -4.327997812678e-05  3.289956916018e-05
H -8.670262685000e-01  3.454712145000e-01 -2.041895779000e-01 -4.425621185608e-04 -4.446258969727e-04  2.516942538353e-04
3
step 2277
H  8.124856088000e-01  2.848190570000e-01 -1.819922639000e-01  3.802806063932e-03  1.198845300823e-03 -7.630424678393e-04
O -6.364777900000e-02 -1.231170409000e-01  6.962249550000e-02 -2.266192302549e-04 -4.532001004352e-05  3.406611859220e-05
H -8.687743962000e-01  3.435847530000e-01 -2.031251585000e-01 -3.568796810105e-04 -4.155452030543e-04  2.335760117072e-04
3
step 2278
H  8.287272786000e-01  2.900417890000e-01 -1.853139235000e-01  3.594384611708e-03  1.177055192314e-03 -7.482261952913e-04
O -6.462605030000e-02 -1.233182057000e-01  6.977310500000e-02 -2.188019069008e-04 -4.605289225012e-05  3.441373162744e-05
H -8.701492387000e-01  3.418348760000e-01 -2.021456091000e-01 -2.724053252609e-04 -3.821249708466e-04  2.128624902101e-04
3
step 2279
H  8.439392240000e-01  2.951191905000e-01 -1.885398155000e-01  3.336637465390e-03  1.134414056616e-03 -7.204993989956e-04
O -6.556246310000e-02 -1.235200389000e-01  6.992364190000e-02 -2.077444919849e-04 -4.575321559503e-05  3.411208942991e-05
H -8.711581512000e-01  3.402408672000e-01 -2.012624488000e-01 -1.900251818336e-04 -3.442710325830e-04  1.895031246222e-04
3
step 2280
H  8.579254091000e-01  2.999687799000e-01 -1.916188445000e-01  3.038102081938e-03  1.074644859642e-03 -6.821582439030e-04
O -6.644397360000e-02 -1.237185814000e-01  7.007161190000e-02 -1.939369632379e-04 -4.465634692765e-05  3.330734150685e-05
H -8.718121045000e-01  3.388222411000e-01 -2.004873118000e-01 -1.105025851299e-04 -3.019700728563e-04  1.634947106523e-04
3
step 2281
H  8.705249415000e-01  3.045231552000e-01 -1.945092221000e-01  2.706291418175e-03  1.000927049115e-03 -6.351662611902e-04
O -6.725955990000e-02 -1.239108161000e-01  7.021510670000e-02 -1.778128553253e-04 -4.295815940766e-05  3.212153890108e-05
H -8.721251334000e-01  3.375983980000e-01 -1.998317450000e-01 -3.447176083940e-05 -2.552861454947e-04  1.348793566186e-04
3
step 2282
H  8.816075295000e-01  3.087276573000e-01 -1.971770352000e-01  2.347711053863e-03  9.159322131590e-04 -5.811757361051e-04
O -6.799997210000e-02 -1.240944982000e-01  7.035269990000e-02 -1.597504711705e-04 -4.081775226716e-05  3.065397350249e-05
H -8.721137587000e-01  3.365882920000e-01 -1.993070142000e-01  3.756552005271e-05 -2.043574875542e-04  1.037425727589e-04
3
step 2283
H  8.910692094000e-01  3.125382628000e-01 -1.995949544000e-01  1.967945108757e-03  8.218840384905e-04 -5.215641573506e-04
O -6.865749870000e-02 -1.242680026000e-01  7.048335240000e-02 -1.400784860359e-04 -3.836149617130e-05  2.898367840089e-05
H -8.717964063000e-01  3.358101136000e-01 -1.989239182000e-01  1.052421764991e-04 -1.493942292337e-04  7.021189992177e-05
3
step 2284
H  8.988285547000e-01  3.159197714000e-01 -2.017411207000e-01  1.571777703987e-03  7.206281374538e-04 -4.574767230827e-04
O -6.922576600000e-02 -1.244301906000e-01  7.060632930000e-02 -1.190836908460e-04 -3.568766824155e-05  2.717224363974e-05
H -8.711928092000e-01  3.352809782000e-01 -1.986926064000e-01  1.683267498801e-04 -9.067677115946e-05  3.445604564202e-05
3
step 2285
H  9.048234668000e-01  3.188443103000e-01 -2.035982257000e-01  1.163328680483e-03  6.137030772394e-04 -3.898696605514e-04
O -6.969957210000e-02 -1.245802970000e-01  7.072113030000e-02 -9.701941659405e-05 -3.287100022952e-05  2.526674167473e-05
H -8.703234184000e-01  3.350166225000e-01 -1.986224014000e-01  2.267207985172e-04 -2.855399711267e-05 -3.316126056507e-06
3
step 2286
H  9.090085707000e-01  3.212901429000e-01 -2.051527784000e-01  7.461908441081e-04  5.024081362459e-04 -3.195517813245e-04
O -7.007476010000e-02 -1.247178370000e-01  7.082743260000e-02 -7.411387646908e-05 -2.996707127566e-05  2.330245170696e-05
H -8.692088287000e-01  3.350311089000e-01 -1.987216250000e-01  2.804541300899e-04  3.655852695569e-05 -4.285660028742e-05
3
step 2287
H  9.113532075000e-01  3.232407658000e-01 -2.063945483000e-01  3.235636591198e-04  3.878667316763e-04 -2.472234767350e-04
O -7.034812520000e-02 -1.248425318000e-01  7.092504460000e-02 -5.057812401777e-05 -2.701638983815e-05  2.130544688531e-05
H -8.678692302000e-01  3.353365376000e-01 -1.989974294000e-01  3.296772960062e-04  1.041808887207e-04 -8.387948204778e-05
3
step 2288
H  9.118400002000e-01  3.246842735000e-01 -2.073161730000e-01 -1.016199834891e-04  2.710847732940e-04 -1.735126690238e-04
O -7.051735740000e-02 -1.249542511000e-01  7.101387160000e-02 -2.661336679052e-05 -2.404822421508e-05  1.929494838633e-05
H -8.663239002000e-01  3.359427714000e-01 -1.994556347000e-01  3.746506894987e-04  1.737717869394e-04 -1.260626143623e-04
3
step 2289
H  9.104639549000e-01  3.256129650000e-01 -2.079129169000e-01 -5.265694477161e-04  1.530073944616e-04 -9.900992141260e-05
O -7.058101260000e-02 -1.250529722000e-01  7.109389020000e-02 -2.417882308196e-06 -2.108444220872e-05  1.728571606235e-05
H -8.645907501000e-01  3.368571737000e-01 -2.001005737000e-01  4.157307228335e-04  2.447330979083e-04 -1.690501106335e-04
3
step 2290
H  9.072321147000e-01  3.260232053000e-01 -2.081825856000e-01 -9.485156591021e-04  3.457430730189e-05 -2.430274367561e-05
O -7.053851570000e-02 -1.251387561000e-01  7.116513480000e-02  2.180637680109e-05 -1.814335078986e-05  1.529039337934e-05
H -8.626859383000e-01  3.380843732000e-01 -2.009349525000e-01  4.533535955859e-04  3.164155938208e-04 -2.124557189187e-04
3
step 2291
H  9.021637172000e-01  3.259155166000e-01 -2.081255845000e-01 -1.364594356082e-03 -8.322656542087e-05  4.999117648003e-05
O -7.039019010000e-02 -1.252117404000e-01  7.122769290000e-02  4.584773990178e-05 -1.524352204893e-05  1.332189349394e-05
H -8.606235593000e-01  3.396260522000e-01 -2.019597238000e-01  4.880146747295e-04  3.881264529677e-04 -2.558670592742e-04
3
step 2292
H  8.952908701000e-01  3.252949091000e-01 -2.077451245000e-01 -1.771727119816e-03 -1.993028666448e-04  1.231891101769e-04
O -7.013731290000e-02 -1.252721486000e-01  7.128171160000e-02  6.947879373476e-05 -1.240793911928e-05  1.139592246150e-05
H -8.584154365000e-01  3.414807766000e-01 -2.031739850000e-01  5.202450269737e-04  4.591389320342e-04 -2.988512278364e-04
3
step 2293
H  8.866597495000e-01  3.241714641000e-01 -2.070475855000e-01 -2.166499844242e-03 -3.123965989335e-04  1.945054803871e-04
O -6.978219740000e-02 -1.253203193000e-01  7.132741590000e-02  9.245019781524e-05 -9.668484927532e-06  9.533758421549e-06
H -8.560710173000e-01  3.436438691000e-01 -2.045749007000e-01  5.505885956163e-04  5.287027286225e-04 -3.409608031538e-04
3
step 2294
H  8.763323390000e-01  3.225611999000e-01 -2.060430528000e-01 -2.545039272589e-03 -4.210193347126e-04  2.630117740090e-04
O -6.932830290000e-02 -1.253567552000e-01  7.136513930000e-02  1.144844815466e-04 -7.070778342164e-06  7.765259334920e-06
H -8.535973651000e-01  3.461073300000e-01 -2.061576529000e-01  5.795766073526e-04  5.960567984169e-04 -3.817413335325e-04
3
step 2295
H  8.643887088000e-01  3.204872228000e-01 -2.047460313000e-01 -2.902888272276e-03 -5.233827960533e-04  3.275936564736e-04
O -6.878037060000e-02 -1.253821941000e-01  7.139536790000e-02  1.352698824732e-04 -4.679421714711e-06  6.132176979640e-06
H -8.509992786000e-01  3.488598221000e-01 -2.079154294000e-01  6.077007906172e-04  6.604440373287e-04 -4.207400037072e-04
3
step 2296
H  8.509298457000e-01  3.179812000000e-01 -2.031763576000e-01 -3.234882878812e-03 -6.173235286874e-04  3.869044889523e-04
O -6.814458800000e-02 -1.253977038000e-01  7.141880050000e-02  1.544540611161e-04 -2.583723807944e-06  4.691731495556e-06
H -8.482795182000e-01  3.518867206000e-01 -2.098394498000e-01  6.353894325345e-04  7.211264024597e-04 -4.575145392049e-04
3
step 2297
H  8.360810087000e-01  3.150851696000e-01 -2.013603210000e-01 -3.535040726119e-03 -7.002260173009e-04  4.393177439450e-04
O -6.742877940000e-02 -1.254048036000e-01  7.143642410000e-02  1.716385060330e-04 -9.036055652178e-07  3.520359628038e-06
H -8.454391349000e-01  3.551702298000e-01 -2.119190317000e-01  6.629836964180e-04  7.774016877781e-04 -4.916431803305e-04
3
step 2298
H  8.199955349000e-01  3.118536867000e-01 -1.993319913000e-01 -3.796478493751e-03 -7.689513454859e-04  4.828826708718e-04
O -6.664261970000e-02 -1.254056110000e-01  7.144960630000e-02  1.863745250266e-04  2.046678192777e-07  2.717211565093e-06
H -8.424779037000e-01  3.586895801000e-01 -2.141417038000e-01  6.907179800590e-04  8.286204643523e-04 -5.227347338591e-04
3
step 2299
H  8.028589174000e-01  3.083562571000e-01 -1.971347282000e-01 -4.011385660043e-03 -8.197841535212e-04  5.152913160985e-04
O -6.579785980000e-02 -1.254030126000e-01  7.146020180000e-02  1.981625412056e-04  5.438838744110e-07  2.406843273387e-06
H -8.393948242000e-01  3.624212928000e-01 -2.164933605000e-01  7.187053889967e-04  8.742025360540e-04 -5.504384784560e-04
3
step 2300
H  7.848928414000e-01  3.046799481000e-01 -1.948227980000e-01 -4.171091540826e-03 -8.484166900526e-04  5.338693534532e-04
O -6.490854590000e-02 -1.254008516000e-01  7.147066810000e-02  2.064571439720e-04 -1.263569520557e-07  2.740162701232e-06
H -8.361886817000e-01  3.663395211000e-01 -2.189584616000e-01  7.469270723079e-04  9.136534821128e-04 -5.744540975219e-04
3
step 2301
H  7.663586753000e-01  3.009319619000e-01 -1.924629629000e-01 -4.266272928413e-03 -8.499965976286e-04  5.356068198246e-04
O -6.399120180000e-02 -1.254041184000e-01  7.148418030000e-02  2.106806284084e-04 -2.087584330459e-06  3.892697358626e-06
H -8.328586409000e-01  3.704164598000e-01 -2.215202734000e-01  7.752277292855e-04  9.465799014967e-04 -5.945409355269e-04
3
step 2302
H  7.475596894000e-01  2.972418276000e-01 -1.901358286000e-01 -4.287355935319e-03 -8.192722942753e-04  5.172484752611e-04
O -6.306492920000e-02 -1.254191196000e-01  7.150473210000e-02  2.102482547842e-04 -5.653722812993e-06  6.058985664793e-06
H -8.294048459000e-01  3.746228194000e-01 -2.241611496000e-01  8.033174241370e-04  9.727029431585e-04 -6.105262441468e-04
3
step 2303
H  7.288410308000e-01  2.937627026000e-01 -1.879366430000e-01 -4.225169038879e-03 -7.508774194831e-04  4.754694858963e-04
O -6.215136870000e-02 -1.254535928000e-01  7.153720110000e-02  2.046086153113e-04 -1.115332881538e-05  9.441688757319e-06
H -8.258289988000e-01  3.789283547000e-01 -2.268628451000e-01  8.307801840899e-04  9.918692079391e-04 -6.223119108169e-04
3
step 2304
H  7.105862278000e-01  2.906710757000e-01 -1.859751068000e-01 -4.071893448438e-03 -6.397965763414e-04  4.071642032706e-04
O -6.127444730000e-02 -1.255167197000e-01  7.158735410000e-02  1.933021844537e-04 -1.890035431600e-05  1.423384575795e-05
H -8.221348837000e-01  3.833024338000e-01 -2.296068550000e-01  8.570897831544e-04  1.004058043930e-03 -6.298790434749e-04
3
step 2305
H  6.932088479000e-01  2.881639931000e-01 -1.843736447000e-01 -3.822312728664e-03 -4.820382189916e-04  3.098641849251e-04
O -6.045982680000e-02 -1.256189853000e-01  7.166175810000e-02  1.760385281768e-04 -2.915220309460e-05  2.059326229760e-05
H -8.183288075000e-01  3.877146307000e-01 -2.323747686000e-01  8.816325515579e-04  1.009384275377e-03 -6.332898629663e-04
3
step 2306
H  6.771380672000e-01  2.864528725000e-01 -1.832635581000e-01 -3.475269042506e-03 -2.754940289162e-04  1.822702941633e-04
O -5.973397550000e-02 -1.257718238000e-01  7.176756090000e-02  1.527865452000e-04 -4.205616284462e-05  2.860952597182e-05
H -8.144199244000e-01  3.921353185000e-01 -2.351486257000e-01  9.037364794857e-04  1.008095679473e-03 -6.326864597245e-04
3
step 2307
H  6.627975851000e-01  2.857532095000e-01 -1.827786402000e-01 -3.035095469390e-03 -2.088264956663e-05  2.483477487206e-05
O -5.912282760000e-02 -1.259870089000e-01  7.191211340000e-02  1.238628204143e-04 -5.759005036276e-05  3.826724155525e-05
H -8.104204219000e-01  3.965362392000e-01 -2.379112592000e-01  9.227055135110e-04  1.000564685370e-03 -6.282861496058e-04
3
step 2308
H  6.505786598000e-01  2.862701333000e-01 -1.830462349000e-01 -2.512663369642e-03  2.774190446036e-04 -1.597262995696e-04
O -5.865008100000e-02 -1.262757808000e-01  7.210242860000e-02  8.999534959628e-05 -7.550907790905e-05  4.941308759631e-05
H -8.063455452000e-01  4.008910250000e-01 -2.406466102000e-01  9.378572127312e-04  9.872745422424e-04 -6.203734974438e-04
3
step 2309
H  6.408098583000e-01  2.881808384000e-01 -1.841763675000e-01 -1.925627821315e-03  6.109226940548e-04 -3.661532198985e-04
O -5.833529940000e-02 -1.266477711000e-01  7.234451570000e-02  5.233628343701e-05 -9.531558385336e-05  6.173710719591e-05
H -8.022134537000e-01  4.051756467000e-01 -2.433400019000e-01  9.485637006159e-04  9.687989782137e-04 -6.092884415162e-04
3
step 2310
H  6.337279432000e-01  2.916161743000e-01 -1.862503557000e-01 -1.297539674968e-03  9.672112176100e-04 -5.867564230183e-04
O -5.819209850000e-02 -1.271098651000e-01  7.264267550000e-02  1.240336809038e-05 -1.162685724128e-04  7.477873719452e-05
H -7.980448872000e-01  4.093687572000e-01 -2.459783502000e-01  9.542907473036e-04  9.457777544891e-04 -5.954119313719e-04
3
step 2311
H  6.294553934000e-01  2.966446765000e-01 -1.893109352000e-01 -6.557614433200e-04  1.330888791108e-03 -8.120054416482e-04
O -5.822676050000e-02 -1.276652101000e-01  7.299888690000e-02 -2.805356086801e-05 -1.374415783066e-04  8.796287359032e-05
H -7.938626796000e-01  4.134519256000e-01 -2.485503118000e-01  9.546316957787e-04  9.188884483966e-04 -5.791491841526e-04
3
step 2312
H  6.279895289000e-01  3.032624694000e-01 -1.933560245000e-01 -2.852064688577e-05  1.685197794027e-03 -1.031529959654e-03
O -5.843758860000e-02 -1.283125841000e-01  7.341241790000e-02 -6.723993120265e-05 -1.578228134284e-04  1.006619004014e-04
H -7.896911295000e-01  4.174097341000e-01 -2.510463487000e-01  9.493337452875e-04  8.888172947928e-04 -5.609123786768e-04
3
step 2313
H  6.292058159000e-01  3.113914465000e-01 -1.983376115000e-01  5.582376822515e-04  2.013952953517e-03 -1.235315812617e-03
O -5.881516130000e-02 -1.290462804000e-01  7.387975550000e-02 -1.035155663214e-04 -1.764354351878e-04  1.122701060163e-04
H -7.855552831000e-01  4.212297569000e-01 -2.534587242000e-01  9.383110747624e-04  8.562294332358e-04 -5.411027735749e-04
3
step 2314
H  6.328745357000e-01  3.208860985000e-01 -2.041659830000e-01  1.083456774892e-03  2.303330193706e-03 -1.414810125496e-03
O -5.934342910000e-02 -1.298565291000e-01  7.439486720000e-02 -1.355589314861e-04 -1.924488327803e-04  1.222723263353e-04
H -7.814801897000e-01  4.249023967000e-01 -2.557814119000e-01  9.216445457046e-04  8.217433102235e-04 -5.200951795041e-04
3
step 2315
H  6.386868916000e-01  3.315473479000e-01 -2.107182825000e-01  1.532494619823e-03  2.543104497755e-03 -1.563685926916e-03
O -6.000140560000e-02 -1.307303549000e-01  7.494973190000e-02 -1.624623254897e-04 -2.052552513445e-04  1.302912092091e-04
H -7.774901882000e-01  4.284206396000e-01 -2.580099550000e-01  8.995671206025e-04  7.859114397331e-04 -4.982261887491e-04
3
step 2316
H  6.462850360000e-01  3.431402085000e-01 -2.178494311000e-01  1.897427036748e-03  2.727142975603e-03 -1.678146972797e-03
O -6.076509870000e-02 -1.316526696000e-01  7.553501500000e-02 -1.837491088640e-04 -2.144993756614e-04  1.361054528442e-04
H -7.736082892000e-01  4.317797231000e-01 -2.601412722000e-01  8.724368984315e-04  7.492059861953e-04 -4.757850514479e-04
3
step 2317
H  6.552908298000e-01  3.554119353000e-01 -2.254033524000e-01  2.176345424543e-03  2.853214306918e-03 -1.756809534983e-03
O -6.160935090000e-02 -1.326073886000e-01  7.614075880000e-02 -1.993272165158e-04 -2.200650787418e-04  1.396418430706e-04
H -7.698556979000e-01  4.349767651000e-01 -2.621734381000e-01  8.407050808839e-04  7.120116565449e-04 -4.530089491484e-04
3
step 2318
H  6.653297235000e-01  3.681080165000e-01 -2.332228586000e-01  2.372055142495e-03  2.922324904274e-03 -1.800290528677e-03
O -6.250936430000e-02 -1.335784074000e-01  7.675698790000e-02 -2.094048770958e-04 -2.220333135075e-04  1.409493630341e-04
H -7.662514766000e-01  4.380103698000e-01 -2.641054471000e-01  8.048815845184e-04  6.746251745524e-04 -4.300821948783e-04
3
step 2319
H  6.760481270000e-01  3.809845139000e-01 -2.411572718000e-01  2.490587142149e-03  2.937839131797e-03 -1.810662686937e-03
O -6.344180380000e-02 -1.345503499000e-01  7.737417350000e-02 -2.143950602107e-04 -2.206277038347e-04  1.401656829833e-04
H -7.628123682000e-01  4.408802515000e-01 -2.659369864000e-01  7.655023533322e-04  6.372602083929e-04 -4.071388066340e-04
3
step 2320
H  6.871242664000e-01  3.938163565000e-01 -2.490675424000e-01  2.539828354488e-03  2.904600204880e-03 -1.790912066392e-03
O -6.438548510000e-02 -1.355090686000e-01  7.798354490000e-02 -2.148279320771e-04 -2.161608578193e-04  1.374838968922e-04
H -7.595527453000e-01  4.435868842000e-01 -2.676682231000e-01  7.231033587485e-04  6.000548625629e-04 -3.842667630088e-04
3
step 2321
H  6.982735682000e-01  4.064019879000e-01 -2.568291225000e-01  2.528432733714e-03  2.828185926116e-03 -1.744479513623e-03
O -6.532171260000e-02 -1.364419228000e-01  7.857726280000e-02 -2.112812296095e-04 -2.089888311869e-04  1.331241820812e-04
H -7.564846606000e-01  4.461311907000e-01 -2.692996145000e-01  6.782004230955e-04  5.630816198676e-04 -3.615138541101e-04
3
step 2322
H  7.092499872000e-01  4.185651471000e-01 -2.643330727000e-01  2.465048657377e-03  2.714349410773e-03 -1.674915333068e-03
O -6.623435750000e-02 -1.373378808000e-01  7.914848330000e-02 -2.043305184836e-04 -1.994763280497e-04  1.273120685456e-04
H -7.536179728000e-01  4.485142791000e-01 -2.708317459000e-01  6.312749442823e-04  5.263582478965e-04 -3.388942409852e-04
3
step 2323
H  7.198446299000e-01  4.301546219000e-01 -2.714859131000e-01  2.357826183167e-03  2.568639343988e-03 -1.585644011595e-03
O -6.710976090000e-02 -1.381874933000e-01  7.969134080000e-02 -1.945173010678e-04 -1.879726115846e-04  1.202635054039e-04
H -7.509605219000e-01  4.507372280000e-01 -2.722651984000e-01  5.827648725885e-04  4.898587649212e-04 -3.163951338955e-04
3
step 2324
H  7.298827702000e-01  4.410427065000e-01 -2.782086709000e-01  2.214143449981e-03  2.396170108303e-03 -1.479822109784e-03
O -6.793653270000e-02 -1.389827849000e-01  8.020088100000e-02 -1.823312396917e-04 -1.747969727315e-04  1.121759062526e-04
H -7.485183343000e-01  4.528009181000e-01 -2.736004454000e-01  5.330599887909e-04  4.535238298444e-04 -2.939831597587e-04
3
step 2325
H  7.392200790000e-01  4.511229435000e-01 -2.844354887000e-01  2.040492722171e-03  2.201507142257e-03 -1.360267817799e-03
O -6.870529870000e-02 -1.397171006000e-01  8.067296580000e-02 -1.682028338575e-04 -1.602318782218e-04  1.032240260977e-04
H -7.462958392000e-01  4.547059085000e-01 -2.748377760000e-01  4.825005648524e-04  4.172700031046e-04 -2.716099982284e-04
3
step 2326
H  7.477386426000e-01  4.603075783000e-01 -2.901120550000e-01  1.842475909938e-03  1.988635519131e-03 -1.229441656506e-03
O -6.940843610000e-02 -1.403849364000e-01  8.110417020000e-02 -1.525033196780e-04 -1.445216724057e-04  9.355922999054e-05
H -7.442960852000e-01  4.564523499000e-01 -2.759772407000e-01  4.313782507013e-04  3.809980568062e-04 -2.492174418224e-04
3
step 2327
H  7.553431528000e-01  4.685250257000e-01 -2.951940438000e-01  1.624867343270e-03  1.760982838664e-03 -1.089460510531e-03
O -7.003981950000e-02 -1.409817758000e-01  8.149168070000e-02 -1.355488797935e-04 -1.278748033432e-04  8.331082319670e-05
H -7.425209495000e-01  4.580399330000e-01 -2.770186193000e-01  3.799386431497e-04  3.445998358343e-04 -2.267416241249e-04
3
step 2328
H  7.619574749000e-01  4.757175253000e-01 -2.996456680000e-01  1.391710837740e-03  1.521472703518e-03 -9.421304208201e-04
O -7.059459260000e-02 -1.415039388000e-01  8.183320360000e-02 -1.176069605345e-04 -1.104678270261e-04  7.258847384174e-05
H -7.409713314000e-01  4.594678621000e-01 -2.779614034000e-01  3.283831371602e-04  3.079650321192e-04 -2.041170651468e-04
3
step 2329
H  7.675216874000e-01  4.818390758000e-01 -3.034384057000e-01  1.146429280358e-03  1.272592544205e-03 -7.889883592759e-04
O -7.106897030000e-02 -1.419484538000e-01  8.212688540000e-02 -9.890336615777e-05 -9.245015667598e-05  6.148508808819e-05
H -7.396473459000e-01  4.607348626000e-01 -2.788047998000e-01  2.768722124155e-04  2.709861396322e-04 -1.812797384862e-04
3
step 2330
H  7.719896082000e-01  4.868536837000e-01 -3.065499197000e-01  8.919343251142e-04  1.016465809350e-03 -6.313467505754e-04
O -7.146007270000e-02 -1.423129484000e-01  8.237124520000e-02 -7.962946278852e-05 -7.394879376013e-05  5.007970816789e-05
H -7.385484877000e-01  4.618391982000e-01 -2.795477398000e-01  2.255300134899e-04  2.335618278045e-04 -1.581691100073e-04
3
step 2331
H  7.753267951000e-01  4.907339293000e-01 -3.089631728000e-01  6.307309872715e-04  7.549231411764e-04 -4.703373814759e-04
O -7.176578910000e-02 -1.425955623000e-01  8.256512120000e-02 -5.994891154572e-05 -5.507302243759e-05  3.844039670125e-05
H -7.376737857000e-01  4.627787072000e-01 -2.801889005000e-01  1.744474078669e-04  1.956002692363e-04 -1.347301810903e-04
3
step 2332
H  7.775089869000e-01  4.934598387000e-01 -3.106657317000e-01  3.650146725895e-04  4.895701730112e-04 -3.069532531549e-04
O -7.198467150000e-02 -1.427948795000e-01  8.270762810000e-02 -4.000398570407e-05 -3.591879774717e-05  2.662692446225e-05
H -7.370219395000e-01  4.635508502000e-01 -2.807267319000e-01  1.236853365039e-04  1.570215166321e-04 -1.109149239344e-04
3
step 2333
H  7.785209527000e-01  4.950180429000e-01 -3.116492486000e-01  9.676254762467e-05  2.218533246733e-04 -1.420891719470e-04
O -7.211585460000e-02 -1.429098792000e-01  8.279812710000e-02 -1.992162273629e-05 -1.657285953339e-05  1.469336215183e-05
H -7.365914444000e-01  4.641527656000e-01 -2.811594909000e-01  7.327959512825e-05  1.177582753044e-04 -8.668283008158e-05
3
step 2334
H  7.783557332000e-01  4.954012250000e-01 -3.119091206000e-01 -1.721811968689e-04 -4.687833322104e-05  2.342000942838e-05
O -7.215900100000e-02 -1.429399047000e-01  8.283620630000e-02  1.809807474854e-07  2.883299900402e-06  2.690507614223e-06
H -7.363806870000e-01  4.645813252000e-01 -2.814852730000e-01  2.324466018850e-05  7.775669396152e-05 -6.200135380595e-05
3
step 2335
H  7.770142355000e-01  4.946078216000e-01 -3.114443056000e-01 -4.400239953372e-04 -3.153135873170e-04  1.887626453656e-04
O -7.211427080000e-02 -1.428846482000e-01  8.282167110000e-02  2.019102089591e-05  2.236967383527e-05 -9.331769225210e-06
H -7.363880358000e-01  4.648331962000e-01 -2.817020502000e-01 -2.642314799361e-05  3.697727434276e-05 -3.684653377398e-05
3
step 2336
H  7.745051866000e-01  4.926419899000e-01 -3.102573030000e-01 -7.049442470510e-04 -5.821191599032e-04  3.531132080441e-04
O -7.198231410000e-02 -1.427441529000e-01  8.275454610000e-02  3.999469280230e-05  4.180399289295e-05 -2.132220884831e-05
H -7.366119097000e-01  4.649049046000e-01 -2.818077084000e-01 -7.574065994653e-05 -4.605741299771e-06 -1.120265021728e-05
3
step 2337
H  7.708454341000e-01  4.895138336000e-01 -3.083542948000e-01 -9.650107425786e-04 -8.458800615554e-04  5.155953672282e-04
O -7.176428670000e-02 -1.425188312000e-01  8.263508550000e-02  5.947184240083e-05  6.109800878938e-05 -3.322582634837e-05
H -7.370508245000e-01  4.647928924000e-01 -2.818000820000e-01 -1.247335968499e-04 -4.700469474413e-05  1.493794419552e-05
3
step 2338
H  7.660606044000e-01  4.852398922000e-01 -3.057454491000e-01 -1.218098300877e-03 -1.105036858336e-03  6.752431593764e-04
O -7.146189000000e-02 -1.422094986000e-01  8.246379470000e-02  7.849028010656e-05  8.015361810218e-05 -4.498153906610e-05
H -7.377034241000e-01  4.644935776000e-01 -2.816769900000e-01 -1.734306601942e-04 -9.021950371179e-05  4.157539116632e-05
3
step 2339
H  7.601861420000e-01  4.798439157000e-01 -3.024454006000e-01 -1.461800151809e-03 -1.357821156293e-03  8.309610139934e-04
O -7.107743670000e-02 -1.418174258000e-01  8.224146260000e-02  9.689991161433e-05  9.885888090445e-05 -5.651966166584e-05
H -7.385684755000e-01  4.640034028000e-01 -2.814362655000e-01 -2.218578545629e-04 -1.342384115164e-04  6.870277472837e-05
3
step 2340
H  7.532687347000e-01  4.733579183000e-01 -2.984739045000e-01 -1.693335148828e-03 -1.602188521607e-03  9.814821572675e-04
O -7.061394160000e-02 -1.413444078000e-01  8.196920450000e-02  1.145265715807e-04  1.170838337023e-04 -6.775930979109e-05
H -7.396448501000e-01  4.633188887000e-01 -2.810757881000e-01 -2.700334092193e-04 -1.790379184984e-04  9.630599782854e-05
3
step 2341
H  7.453681640000e-01  4.658235404000e-01 -2.938566808000e-01 -1.909447508031e-03 -1.835746866288e-03  1.125324172527e-03
O -7.007524150000e-02 -1.407928527000e-01  8.164851680000e-02  1.311653270668e-04  1.346760326818e-04 -7.860564830513e-05
H -7.409314744000e-01  4.624366840000e-01 -2.805935143000e-01 -3.179609352763e-04 -2.245831111389e-04  1.243639834525e-04
3
step 2342
H  7.365596082000e-01  4.572937288000e-01 -2.886264570000e-01 -2.106301482507e-03 -2.055683329989e-03  1.260743573356e-03
O -6.946614470000e-02 -1.401658895000e-01  8.128134490000e-02  1.465733558751e-04  1.514559643957e-04 -8.894705268207e-05
H -7.424272515000e-01  4.613536147000e-01 -2.799875081000e-01 -3.656219566349e-04 -2.708277077703e-04  1.528486746249e-04
3
step 2343
H  7.269364146000e-01  4.478347386000e-01 -2.828242100000e-01 -2.279374866511e-03 -2.258693611907e-03  1.385691802868e-03
O -6.879261250000e-02 -1.394674971000e-01  8.087016210000e-02  1.604628751676e-04  1.672124061692e-04 -9.865223382966e-05
H -7.441309462000e-01  4.600667344000e-01 -2.792559715000e-01 -4.129695379704e-04 -3.177124770001e-04  1.817240562090e-04
3
step 2344
H  7.166133342000e-01  4.375284317000e-01 -2.765005936000e-01 -2.423361833668e-03 -2.440922254855e-03  1.497778011820e-03
O -6.806197180000e-02 -1.387026530000e-01  8.041806240000e-02  1.724944631929e-04  1.816983670265e-04 -1.075677514496e-04
H -7.460410509000e-01  4.585733875000e-01 -2.783972836000e-01 -4.599206556847e-04 -3.651635692851e-04  2.109451081410e-04
3
step 2345
H  7.057301445000e-01  4.264748014000e-01 -2.697175065000e-01 -2.532104138421e-03 -2.597928828793e-03  1.594247711907e-03
O -6.728315400000e-02 -1.378774974000e-01  7.992886200000e-02  1.822720997197e-04  1.946285461983e-04 -1.155164324614e-04
H -7.481556039000e-01  4.568712738000e-01 -2.774100404000e-01 -5.063474580993e-04 -4.130907342308e-04  2.404566626730e-04
3
step 2346
H  6.944554858000e-01  4.147945669000e-01 -2.625497065000e-01 -2.598579665602e-03 -2.724701867897e-03  1.671990797916e-03
O -6.646695150000e-02 -1.369995043000e-01  7.940720520000e-02  1.893418770065e-04  2.056797536569e-04 -1.222975172756e-04
H -7.504719786000e-01  4.549585275000e-01 -2.762931038000e-01 -5.520706831737e-04 -4.613836317702e-04  2.701910868615e-04
3
step 2347
H  6.829905844000e-01  4.026315755000e-01 -2.550863079000e-01 -2.614987913243e-03 -2.815748595281e-03  1.727596153238e-03
O -6.562626770000e-02 -1.360776422000e-01  7.885866510000e-02  1.931970370758e-04  2.144963496403e-04 -1.276899052240e-04
H -7.529866447000e-01  4.528338140000e-01 -2.750456617000e-01 -5.968539492900e-04 -5.099073982667e-04  3.000655399494e-04
3
step 2348
H  6.715723410000e-01  3.901546125000e-01 -2.474319184000e-01 -2.572978470884e-03 -2.865291888636e-03  1.757472868985e-03
O -6.477632960000e-02 -1.351224971000e-01  7.828982090000e-02  1.932923613126e-04  2.207028378369e-04 -1.314598521724e-04
H -7.556949073000e-01  4.504964477000e-01 -2.736673008000e-01 -6.404008389366e-04 -5.584969875793e-04  3.299783348279e-04
3
step 2349
H  6.604750543000e-01  3.775580794000e-01 -2.397070758000e-01 -2.464077766267e-03 -2.867609121459e-03  1.758060237057e-03
O -6.393481170000e-02 -1.341463235000e-01  7.770829080000e-02  1.890714275102e-04  2.239256417672e-04 -1.333744687690e-04
H -7.585906420000e-01  4.479465381000e-01 -2.721580988000e-01 -6.823560048976e-04 -6.069503830858e-04  3.598047189759e-04
3
step 2350
H  6.500097754000e-01  3.650608388000e-01 -2.320475464000e-01 -2.280374216848e-03 -2.817545754719e-03  1.726146145161e-03
O -6.312180990000e-02 -1.331629765000e-01  7.712269220000e-02  1.800103957561e-04  2.238254585267e-04 -1.332219655316e-04
H -7.616660443000e-01  4.451851675000e-01 -2.705187342000e-01 -7.223113228569e-04 -6.550211469045e-04  3.893922257242e-04
3
step 2351
H  6.405200353000e-01  3.529023985000e-01 -2.246019764000e-01 -2.015505457775e-03 -2.711217872005e-03  1.659302033065e-03
O -6.235958300000e-02 -1.321876795000e-01  7.654249670000e-02  1.656809103604e-04  2.201406744178e-04 -1.308387636197e-04
H -7.649114187000e-01  4.422146019000e-01 -2.687506189000e-01 -7.598184434443e-04 -7.024109554050e-04  4.185560392322e-04
3
step 2352
H  6.323725607000e-01  3.413356082000e-01 -2.175273841000e-01 -1.665934605150e-03 -2.546871244983e-03  1.556415691727e-03
O -6.167197520000e-02 -1.312365771000e-01  7.597775300000e-02  1.458313453238e-04  2.127399134989e-04 -1.261422279728e-04
H -7.683150370000e-01  4.390385342000e-01 -2.668560487000e-01 -7.944085207959e-04 -7.487629940709e-04  4.470750679738e-04
3
step 2353
H  6.259418330000e-01  3.306153266000e-01 -2.109821483000e-01 -1.232392223668e-03 -2.325785802884e-03  1.418255337409e-03
O -6.108344720000e-02 -1.303260425000e-01  7.543865570000e-02  1.204790202748e-04  2.016777218579e-04 -1.191653659905e-04
H -7.718631010000e-01  4.356623529000e-01 -2.648383700000e-01 -8.256196752959e-04 -7.936569202259e-04  4.746890649891e-04
3
step 2354
H  6.215881859000e-01  3.209832031000e-01 -2.051165649000e-01 -7.212214615768e-04 -2.053027214796e-03  1.247941771531e-03
O -6.061769160000e-02 -1.294717428000e-01  7.493496480000e-02  8.999694031434e-05  1.872417954830e-04 -1.100862603881e-04
H -7.755398408000e-01  4.320934290000e-01 -2.627021562000e-01 -8.530287348012e-04 -8.366081225276e-04  5.010984633277e-04
3
step 2355
H  6.196305934000e-01  3.126497678000e-01 -2.000617031000e-01 -1.452438081233e-04 -1.737790516757e-03  1.051167735208e-03
O -6.029590510000e-02 -1.286875335000e-01  7.447531670000e-02  5.517072360943e-05  1.699755428618e-04 -9.924223938573e-05
H -7.793277550000e-01  4.283413918000e-01 -2.604533751000e-01 -8.762859561771e-04 -8.770712498012e-04  5.259668124071e-04
3
step 2356
H  6.203171915000e-01  3.057762066000e-01 -1.959180430000e-01  4.762637021688e-04 -1.393099100358e-03  8.360161468580e-04
O -6.013490560000e-02 -1.279843267000e-01  7.406651930000e-02  1.719946074689e-05  1.506604133828e-04 -8.711919421406e-05
H -7.832080134000e-01  4.244183846000e-01 -2.580995442000e-01 -8.951475161708e-04 -9.144493348136e-04  5.489266517845e-04
3
step 2357
H  6.237982652000e-01  3.004590849000e-01 -1.927459222000e-01  1.118753743580e-03 -1.034750578632e-03  6.123097133531e-04
O -6.014539670000e-02 -1.273691396000e-01  7.371295710000e-02 -2.237748572367e-05  1.302507784584e-04 -7.431148204870e-05
H -7.871609806000e-01  4.203392605000e-01 -2.556498469000e-01 -9.094977220406e-04 -9.481102545484e-04  5.695897685458e-04
3
step 2358
H  6.301071426000e-01  2.967213474000e-01 -1.905598646000e-01  1.754713617667e-03 -6.796359638656e-04  3.905692016732e-04
O -6.033072570000e-02 -1.268445328000e-01  7.341623700000e-02 -6.182484809576e-05  1.097692641045e-04 -6.145707682305e-05
H -7.911668142000e-01  4.161216945000e-01 -2.531151979000e-01 -9.193630034756e-04 -9.774075375294e-04  5.875599596187e-04
3
step 2359
H  6.391533517000e-01  2.945117502000e-01 -1.893281429000e-01  2.356665937184e-03 -3.437819507741e-04  1.807959179316e-04
O -6.068641140000e-02 -1.264085746000e-01  7.317516070000e-02 -9.940078095232e-05  9.018474560799e-05 -4.916179528219e-05
H -7.952061103000e-01  4.117861968000e-01 -2.505082478000e-01 -9.249087311597e-04 -1.001706286126e-03  6.024488521030e-04
3
step 2360
H  6.507297725000e-01  2.937129923000e-01 -1.889777620000e-01  2.900172678855e-03 -4.059275251131e-05 -8.626125779865e-06
O -6.120055860000e-02 -1.260553473000e-01  7.298603370000e-02 -1.335471850962e-04  7.230321878285e-05 -3.793113379977e-05
H -7.992604732000e-01  4.073559981000e-01 -2.478433096000e-01 -9.264221439782e-04 -1.020412495131e-03  6.138936662897e-04
3
step 2361
H  6.645320815000e-01  2.941565326000e-01 -1.894036281000e-01  3.366141185178e-03  2.203067353270e-04 -1.716571558309e-04
O -6.185505140000e-02 -1.257758661000e-01  7.284323420000e-02 -1.630365107147e-04  5.669672047053e-05 -2.812546315271e-05
H -8.033130128000e-01  4.028568068000e-01 -2.451362085000e-01 -9.242890596260e-04 -1.032999531734e-03  6.215732279747e-04
3
step 2362
H  6.801860832000e-01  2.956408448000e-01 -1.904798934000e-01  3.742013591857e-03  4.334605143541e-04 -3.048514209274e-04
O -6.262725280000e-02 -1.255592076000e-01  7.273991440000e-02 -1.870489529155e-04  4.368075679922e-05 -1.994538751557e-05
H -8.073487096000e-01  3.983164619000e-01 -2.424040683000e-01 -9.189599667149e-04 -1.039032549383e-03  6.252226780300e-04
3
step 2363
H  6.972775632000e-01  2.979496437000e-01 -1.920713113000e-01  4.021805690688e-03  5.972754255813e-04 -4.071725362563e-04
O -6.349187280000e-02 -1.253936261000e-01  7.266869680000e-02 -2.051772650203e-04  3.333537562713e-05 -1.344444277892e-05
H -8.113546156000e-01  3.937644771000e-01 -2.396650318000e-01 -9.109141604809e-04 -1.038189089417e-03  6.246458370372e-04
3
step 2364
H  7.153799599000e-01  3.008674617000e-01 -1.940429646000e-01  4.205260676697e-03  7.132584869576e-04 -4.795232663136e-04
O -6.442271080000e-02 -1.252674975000e-01  7.262226520000e-02 -2.173757367399e-04  2.555421368265e-05 -8.559461894296e-06
H -8.153199054000e-01  3.892315131000e-01 -2.369379393000e-01 -9.006248704045e-04 -1.030273283245e-03  6.197237302558e-04
3
step 2365
H  7.340768114000e-01  3.041912011000e-01 -1.962675068000e-01  4.296515966417e-03  7.850719931296e-04 -5.241605017694e-04
O -6.539407680000e-02 -1.251700071000e-01  7.259379500000e-02 -2.238781259217e-04  2.010407992611e-05 -5.147659631752e-06
H -8.192357722000e-01  3.847487976000e-01 -2.342419750000e-01 -8.885254985915e-04 -1.015224806999e-03  6.104199037303e-04
3
step 2366
H  7.529777616000e-01  3.077374422000e-01 -1.986297700000e-01  4.302658451067e-03  8.176283145871e-04 -5.441319441497e-04
O -6.638181570000e-02 -1.250915715000e-01  7.257721920000e-02 -2.251081943714e-04  1.668128433905e-05 -3.021664945394e-06
H -8.230951833000e-01  3.803475193000e-01 -2.315962982000e-01 -8.749804520374e-04 -9.931215098734e-04  5.967819373006e-04
3
step 2367
H  7.717283646000e-01  3.113460744000e-01 -2.010290776000e-01  4.232431270195e-03  8.163538203075e-04 -5.428152318471e-04
O -6.736394570000e-02 -1.250240331000e-01  7.256735310000e-02 -2.215995457194e-04  1.495735735529e-05 -1.977815642304e-06
H -8.268925206000e-01  3.760582246000e-01 -2.290196765000e-01 -8.602619583686e-04 -9.641762098312e-04  5.789394242072e-04
3
step 2368
H  7.900147733000e-01  3.148811627000e-01 -2.033798186000e-01  4.095217950788e-03  7.866623546487e-04 -5.235872718894e-04
O -6.832098120000e-02 -1.249606831000e-01  7.255991180000e-02 -2.139328926201e-04  1.461192927187e-05 -1.816380614422e-06
H -8.306231336000e-01  3.719102399000e-01 -2.265301353000e-01 -8.445338661164e-04 -9.287281914932e-04  5.570988286837e-04
3
step 2369
H  8.075646547000e-01  3.182299718000e-01 -2.056108668000e-01  3.900322246234e-03  7.336214288217e-04 -4.896147679692e-04
O -6.923602220000e-02 -1.248961676000e-01  7.255145840000e-02 -2.026915303590e-04  1.535350557545e-05 -2.354409000804e-06
H -8.342828380000e-01  3.679311424000e-01 -2.241446356000e-01 -8.278430374690e-04 -8.872304986762e-04  5.315356923526e-04
3
step 2370
H  8.241455769000e-01  3.213009115000e-01 -2.076643224000e-01  3.656506910368e-03  6.617708790314e-04 -4.437399447211e-04
O -7.009468720000e-02 -1.248263282000e-01  7.253930900000e-02 -1.884324113822e-04  1.693038713032e-05 -3.432714719790e-06
H -8.378673935000e-01  3.641462942000e-01 -2.218787913000e-01 -8.101179449661e-04 -8.402340683523e-04  5.025850304935e-04
3
step 2371
H  8.395618876000e-01  3.240209733000e-01 -2.094939308000e-01  3.371738336937e-03  5.750515584261e-04 -3.884340557870e-04
O -7.088495000000e-02 -1.247480137000e-01  7.252141950000e-02 -1.716695250352e-04  1.913418072867e-05 -4.918550520913e-06
H -8.413719898000e-01  3.605784515000e-01 -2.197466320000e-01 -7.911740196026e-04 -7.883698350705e-04  4.706304712784e-04
3
step 2372
H  8.536508669000e-01  3.263330526000e-01 -2.110634176000e-01  3.053083706885e-03  4.768074077731e-04 -3.257968170078e-04
O -7.159692690000e-02 -1.246588895000e-01  7.249626790000e-02 -1.528665519190e-04  2.179833636124e-05 -6.705164595097e-06
H -8.447907715000e-01  3.572474550000e-01 -2.177604146000e-01 -7.707250006931e-04 -7.323297383313e-04  4.360927367788e-04
3
step 2373
H  8.662787058000e-01  3.281934029000e-01 -2.123449022000e-01  2.706712716197e-03  3.698317828370e-04 -2.575845182521e-04
O -7.222264920000e-02 -1.245572616000e-01  7.246274420000e-02 -1.324358399803e-04  2.479372246146e-05 -8.709405355508e-06
H -8.481164232000e-01  3.541700060000e-01 -2.159304870000e-01 -7.483993870055e-04 -6.728473368537e-04  3.994179045636e-04
3
step 2374
H  8.773366739000e-01  3.295693636000e-01 -2.133174792000e-01  2.337964034088e-03  2.564366186180e-04 -1.852530230844e-04
O -7.275584180000e-02 -1.244419254000e-01  7.242005390000e-02 -1.107413528248e-04  2.802289840611e-05 -1.086822460044e-05
H -8.513398386000e-01  3.513595261000e-01 -2.142652024000e-01 -7.237605264323e-04 -6.106790490721e-04  3.610660898315e-04
3
step 2375
H  8.867376798000e-01  3.304374195000e-01 -2.139660078000e-01  1.951447177529e-03  1.385299905705e-04 -1.100060434018e-04
O -7.319172080000e-02 -1.243120398000e-01  7.236763890000e-02 -8.810361099931e-05  3.141398476565e-05 -1.313484699110e-05
H -8.544498815000e-01  3.488260971000e-01 -2.127708825000e-01 -6.963307510240e-04 -5.465858141685e-04  3.215003378107e-04
3
step 2376
H  8.944133297000e-01  3.307816070000e-01 -2.142801162000e-01  1.551159844983e-03  1.769320957626e-05 -3.284308495599e-05
O -7.352681580000e-02 -1.241670290000e-01  7.230511400000e-02 -6.480559776142e-05  3.491480781614e-05 -1.547501266583e-05
H -8.574332654000e-01  3.465764820000e-01 -2.114518285000e-01 -6.656160422605e-04 -4.813167186470e-04  2.811767777627e-04
3
step 2377
H  9.003115151000e-01  3.305922486000e-01 -2.142534100000e-01  1.140609661192e-03 -1.047467135339e-04  4.539545487562e-05
O -7.375881940000e-02 -1.240065086000e-01  7.223222070000e-02 -4.109893453930e-05  3.848745087281e-05 -1.786355353948e-05
H -8.602745311000e-01  3.446142076000e-01 -2.103103705000e-01 -6.311300700922e-04 -4.155949267068e-04  2.405361117264e-04
3
step 2378
H  9.043945368000e-01  3.298649931000e-01 -2.138828712000e-01  7.229356888372e-04 -2.276503263874e-04  1.239866724425e-04
O -7.388646290000e-02 -1.238302344000e-01  7.214879420000e-02 -1.720997411338e-05  4.210333129190e-05 -2.028125757755e-05
H -8.629561364000e-01  3.429397085000e-01 -2.093469535000e-01 -5.924189633460e-04 -3.501050002078e-04  1.999960174681e-04
3
step 2379
H  9.066377555000e-01  3.286001341000e-01 -2.131684317000e-01  3.010282900577e-04 -3.500034502296e-04  2.022860663819e-04
O -7.390941980000e-02 -1.236380722000e-01  7.205474420000e-02  6.653955358260e-06  4.573868886516e-05 -2.271204390035e-05
H -8.654586503000e-01  3.415505210000e-01 -2.085602524000e-01 -5.490823456001e-04 -2.854836377665e-04  1.599455215449e-04
3
step 2380
H  9.070287647000e-01  3.268021952000e-01 -2.121127134000e-01 -1.223536586526e-04 -4.708601517678e-04  2.796917144655e-04
O -7.382823570000e-02 -1.234299858000e-01  7.195004650000e-02  3.029844801622e-05  4.937054045925e-05 -2.514040757782e-05
H -8.677610270000e-01  3.404415082000e-01 -2.079473078000e-01 -5.007935391315e-04 -2.223119771427e-04  1.207403368553e-04
3
step 2381
H  9.055670673000e-01  3.244797475000e-01 -2.107209152000e-01 -5.444660406525e-04 -5.892881056621e-04  3.556098857486e-04
O -7.364428520000e-02 -1.232060422000e-01  7.183474640000e-02  5.353574427716e-05  5.297287691970e-05 -2.754904269454e-05
H -8.698409769000e-01  3.396051211000e-01 -2.075036820000e-01 -4.473163268795e-04 -1.611096437606e-04  8.269937951505e-05
3
step 2382
H  9.022642703000e-01  3.216454734000e-01 -2.090008548000e-01 -9.624610455099e-04 -7.043142404210e-04  4.294206847171e-04
O -7.335975700000e-02 -1.229664326000e-01  7.170897130000e-02  7.617806627359e-05  5.651306110010e-05 -2.991657054831e-05
H -8.716753871000e-01  3.390316756000e-01 -2.072236249000e-01 -3.885179021702e-04 -1.023317292580e-04  4.610288102224e-05
3
step 2383
H  8.971447969000e-01  3.183164591000e-01 -2.069631557000e-01 -1.373264784274e-03 -8.148697123553e-04  5.004431423396e-04
O -7.297766880000e-02 -1.227115097000e-01  7.157295350000e-02  9.803055561429e-05  5.994828531476e-05 -3.221526327777e-05
H -8.732408058000e-01  3.387096402000e-01 -2.071002466000e-01 -3.243788884121e-04 -4.636704992479e-05  1.119132320765e-05
3
step 2384
H  8.902471528000e-01  3.145147400000e-01 -2.046215945000e-01 -1.773451353059e-03 -9.197333528086e-04  5.678994020563e-04
O -7.250191460000e-02 -1.224418393000e-01  7.142706310000e-02  1.188837586127e-04  6.322199222302e-05 -3.440878120313e-05
H -8.745139505000e-01  3.386259284000e-01 -2.071256923000e-01 -2.549998893804e-04  6.462228121816e-06 -2.183479488780e-05
3
step 2385
H  8.816257408000e-01  3.102680886000e-01 -2.019936015000e-01 -2.159110885720e-03 -1.017471824247e-03  6.308767436702e-04
O -7.193734500000e-02 -1.221582689000e-01  7.127185040000e-02  1.385056087023e-04  6.626016315379e-05 -3.644976389389e-05
H -8.754722499000e-01  3.387661896000e-01 -2.072913177000e-01 -1.806063573629e-04  5.590034667242e-05 -5.281487473452e-05
3
step 2386
H  8.713532807000e-01  3.056110831000e-01 -1.991009403000e-01 -2.525710100909e-03 -1.106374323110e-03  6.882862063940e-04
O -7.128988460000e-02 -1.218620122000e-01  7.110809980000e-02  1.566327414816e-04  6.896728645809e-05 -3.827718354312e-05
H -8.760943943000e-01  3.391150992000e-01 -2.075878628000e-01 -1.015499873235e-04  1.017575440330e-04 -8.162795776560e-05
3
step 2387
H  8.595238451000e-01  3.005864669000e-01 -1.959705706000e-01 -2.867952140610e-03 -1.184384494338e-03  7.388194474789e-04
O -7.056668870000e-02 -1.215547523000e-01  7.093689580000e-02  1.729616086340e-04  7.122208359697e-05 -3.981354292675e-05
H -8.763608900000e-01  3.396566460000e-01 -2.080056248000e-01 -1.830857520071e-05  1.439095293566e-04 -1.081925105384e-04
3
step 2388
H  8.462565054000e-01  2.952468127000e-01 -1.926357049000e-01 -3.179643809179e-03 -1.249031701376e-03  7.809051848805e-04
O -6.977633820000e-02 -1.212387644000e-01  7.075970080000e-02  1.871399209618e-04  7.287316209305e-05 -4.096203222356e-05
H -8.762546084000e-01  3.403744177000e-01 -2.085346301000e-01  6.851621275459e-05  1.822973455123e-04 -1.324664110216e-04
3
step 2389
H  8.316995292000e-01  2.896564839000e-01 -1.891370528000e-01 -3.453587843332e-03 -1.297368558501e-03  8.126694247361e-04
O -6.892907120000e-02 -1.209170564000e-01  7.057844660000e-02  1.987596821378e-04  7.373484218114e-05 -4.160385496332e-05
H -8.757613207000e-01  3.412518872000e-01 -2.091648073000e-01  1.582012946218e-04  2.169284981297e-04 -1.544477119569e-04
3
step 2390
H  8.160349696000e-01  2.838938452000e-01 -1.855242257000e-01 -3.681530267609e-03 -1.325927378049e-03  8.319073861051e-04
O -6.803703890000e-02 -1.205935281000e-01  7.039563530000e-02  2.073536050190e-04  7.358405307958e-05 -4.159642247031e-05
H -8.748702260000e-01  3.422727080000e-01 -2.098861657000e-01  2.499066478478e-04  2.478787565838e-04 -1.741758521817e-04
3
step 2391
H  7.994833228000e-01  2.780536050000e-01 -1.818572268000e-01 -3.854203778004e-03 -1.330713099041e-03  8.360787882382e-04
O -6.711456850000e-02 -1.202731396000e-01  7.021444610000e-02  2.123975617180e-04  7.215958791256e-05 -4.077312988298e-05
H -8.735744464000e-01  3.434210160000e-01 -2.106889792000e-01  3.426818092501e-04  2.752946817746e-04 -1.917333341966e-04
3
step 2392
H  7.823077379000e-01  2.722490876000e-01 -1.782078967000e-01 -3.961518477293e-03 -1.307255968287e-03  8.223418727457e-04
O -6.617839780000e-02 -1.199620765000e-01  7.003883920000e-02  2.133223997125e-04  6.916523486488e-05 -3.894577422815e-05
H -8.718714980000e-01  3.446817471000e-01 -2.115639791000e-01  4.354724390141e-04  2.993974703617e-04 -2.072482245186e-04
3
step 2393
H  7.648170054000e-01  2.666141151000e-01 -1.746611062000e-01 -3.992964482116e-03 -1.250755989471e-03  7.876457109553e-04
O -6.524783430000e-02 -1.196678909000e-01  6.987364080000e-02  2.095388722372e-04  6.427905179965e-05 -3.591062017646e-05
H -8.697637293000e-01  3.460409729000e-01 -2.125025597000e-01  5.271289736514e-04  3.204871006882e-04 -2.208968414457e-04
3
step 2394
H  7.473662438000e-01  2.613040158000e-01 -1.713153941000e-01 -3.938297874430e-03 -1.156358382498e-03  7.289042869764e-04
O -6.434477230000e-02 -1.193995856000e-01  6.972459380000e-02  2.004798974461e-04  5.717104699807e-05 -3.145948021635e-05
H -8.672587162000e-01  3.474862544000e-01 -2.134969955000e-01  6.164176696050e-04  3.389462638652e-04 -2.329063651145e-04
3
step 2395
H  7.303538860000e-01  2.564950946000e-01 -1.682826361000e-01 -3.788573566628e-03 -1.019599853041e-03  6.432784479060e-04
O -6.349348190000e-02 -1.191676005000e-01  6.959834630000e-02  1.856642785551e-04  4.753137783676e-05 -2.539715770046e-05
H -8.643696031000e-01  3.490070120000e-01 -2.145406686000e-01  7.020352351130e-04  3.552429098349e-04 -2.435565699202e-04
3
step 2396
H  7.142133267000e-01  2.523817370000e-01 -1.656862156000e-01 -3.537541472040e-03 -8.370484817393e-04  5.285819346126e-04
O -6.272006790000e-02 -1.189836497000e-01  6.950234920000e-02  1.647831648542e-04  3.511034729069e-05 -1.756633609794e-05
H -8.611153708000e-01  3.505949017000e-01 -2.156283018000e-01  7.826282890791e-04  3.699301422370e-04 -2.531799022242e-04
3
step 2397
H  6.993976917000e-01  2.491702800000e-01 -1.636571398000e-01 -3.183313111213e-03 -6.071137333748e-04  3.837964361316e-04
O -6.205150310000e-02 -1.188603581000e-01  6.944462740000e-02  1.378036312221e-04  1.976892751568e-05 -7.879498489346e-06
H -8.575210068000e-01  3.522441838000e-01 -2.167561865000e-01  8.568186891431e-04  3.836420130620e-04 -2.621590805637e-04
3
step 2398
H  6.863569016000e-01  2.470690274000e-01 -1.623277031000e-01 -2.730045258987e-03 -3.309272438606e-04  2.096307042079e-04
O -6.151418070000e-02 -1.188106565000e-01  6.943339760000e-02  1.050731855605e-04  1.534311562674e-06  3.645660672416e-06
H -8.536175517000e-01  3.539520628000e-01 -2.179223943000e-01  9.232359357053e-04  3.970839737723e-04 -2.709214367181e-04
3
step 2399
H  6.755077071000e-01  2.462744134000e-01 -1.618227107000e-01 -2.189223855096e-03 -1.310675801847e-05  9.004191009672e-06
O -6.113203230000e-02 -1.188469317000e-01  6.947652980000e-02  6.739852762158e-05 -1.935090692220e-05  1.685485544868e-05
H -8.494419861000e-01  3.557189723000e-01 -2.191269563000e-01  9.805573969805e-04  4.110168401319e-04 -2.799293211191e-04
3
step 2400
H  6.671995180000e-01  2.469543332000e-01 -1.622489096000e-01 -1.580046009625e-03  3.378508487850e-04 -2.127038983622e-04
O -6.092439200000e-02 -1.189799917000e-01  6.958089050000e-02  2.606639747160e-05 -4.240193375520e-05  3.144008076968e-05
H -8.450369243000e-01  3.575487746000e-01 -2.203719900000e-01  1.027558878291e-03  4.262324651914e-04 -2.896653887090e-04
3
step 2401
H  6.616810956000e-01  2.492308668000e-01 -1.636840326000e-01 -9.284825443997e-04  7.097925088604e-04 -4.477947536199e-04
O -6.090393140000e-02 -1.192179811000e-01  6.975165450000e-02 -1.721934015160e-05 -6.690341662560e-05  4.694699007522e-05
H -8.404500598000e-01  3.594488325000e-01 -2.216617501000e-01  1.063172500436e-03  4.435217740825e-04 -3.006132634881e-04
3
step 2402
H  6.590745854000e-01  2.531655606000e-01 -1.661674563000e-01 -2.649235199994e-04  1.087863415886e-03 -6.868539933329e-04
O -6.107507440000e-02 -1.195654478000e-01  6.999171260000e-02 -6.049006194485e-05 -9.196706291500e-05  6.281148640106e-05
H -8.357333516000e-01  3.614299295000e-01 -2.230025861000e-01  1.086548038324e-03  4.636363353779e-04 -3.132341668442e-04
3
step 2403
H  6.593628121000e-01  2.587505039000e-01 -1.696945305000e-01  3.792209001908e-04  1.456079678261e-03 -9.197484417751e-04
O -6.143326570000e-02 -1.200227632000e-01  7.030130310000e-02 -1.017305429653e-04 -1.166280335550e-04  7.842096502423e-05
H -8.309419332000e-01  3.635060052000e-01 -2.244027887000e-01  1.097114803568e-03  4.872432587493e-04 -3.279392765403e-04
3
step 2404
H  6.623930584000e-01  2.659073718000e-01 -1.742159588000e-01  9.751769028494e-04  1.799174114290e-03 -1.136796842564e-03
O -6.196529450000e-02 -1.205860323000e-01  7.067795600000e-02 -1.391128836056e-04 -1.399584188196e-04  9.318640315986e-05
H -8.261327577000e-01  3.656936807000e-01 -2.258723056000e-01  1.094637187054e-03  5.148769386150e-04 -3.450600927348e-04
3
step 2405
H  6.678963561000e-01  2.744946539000e-01 -1.796423726000e-01  1.499821380588e-03  2.104259736455e-03 -1.329825213244e-03
O -6.265060990000e-02 -1.212475065000e-01  7.111675540000e-02 -1.711888996298e-04 -1.611692728327e-04  1.066071771511e-04
H -8.213630204000e-01  3.680115723000e-01 -2.274223285000e-01  1.079253421267e-03  5.468933804195e-04 -3.648203124404e-04
3
step 2406
H  6.755176429000e-01  2.843212544000e-01 -1.858529468000e-01  1.937421039325e-03  2.361938417902e-03 -1.492869983808e-03
O -6.346332830000e-02 -1.219963867000e-01  7.161085040000e-02 -1.970008919166e-04 -1.796778488322e-04  1.183137055978e-04
H -8.166884646000e-01  3.704794162000e-01 -2.290647625000e-01  1.051493946686e-03  5.834303458318e-04 -3.873110134081e-04
3
step 2407
H  6.848502724000e-01  2.951634220000e-01 -1.927061270000e-01  2.279929021487e-03  2.566695600795e-03 -1.622428100543e-03
O -6.437451840000e-02 -1.228198251000e-01  7.215209090000e-02 -2.161001179872e-04 -1.951302074787e-04  1.280815555517e-04
H -8.121616439000e-01  3.731170342000e-01 -2.308115962000e-01  1.012277000739e-03  6.243770011141e-04 -4.124716203626e-04
3
step 2408
H  6.954687661000e-01  3.067818046000e-01 -2.000504339000e-01  2.526110504757e-03  2.716653282478e-03 -1.717301057955e-03
O -6.535436970000e-02 -1.237039253000e-01  7.273166200000e-02 -2.284897912750e-04 -2.073841303501e-04  1.358203943395e-04
H -8.078302664000e-01  3.759431927000e-01 -2.326742047000e-01  9.628810910692e-04  6.693569723173e-04 -4.400789299626e-04
3
step 2409
H  7.069556720000e-01  3.189362166000e-01 -2.077338251000e-01  2.679992108497e-03  2.812899591811e-03 -1.778171603204e-03
O -6.637397890000e-02 -1.246345949000e-01  7.334062320000e-02 -2.345240613865e-04 -2.164667647868e-04  1.415471896206e-04
H -8.037356977000e-01  3.789744198000e-01 -2.346626235000e-01  9.048968945969e-04  7.177278241838e-04 -4.697462651598e-04
3
step 2410
H  7.189207474000e-01  3.313968280000e-01 -2.156107958000e-01  2.749121853893e-03  2.858642728287e-03 -1.807068459481e-03
O -6.740663460000e-02 -1.255981751000e-01  7.397030810000e-02 -2.347941634845e-04 -2.225227975669e-04  1.453536225217e-04
H -7.999117262000e-01  3.822238602000e-01 -2.367848439000e-01  8.401620152237e-04  7.685975798457e-04 -5.009330377916e-04
3
step 2411
H  7.310125914000e-01  3.439515275000e-01 -2.235470566000e-01  2.742992579517e-03  2.858390357210e-03 -1.806845626393e-03
O -6.842860740000e-02 -1.265818396000e-01  7.461257860000e-02 -2.300244456648e-04 -2.257655357543e-04  1.473753886070e-04
H -7.963836373000e-01  3.857002366000e-01 -2.390461708000e-01  7.706855298585e-04  8.208564940475e-04 -5.329638052007e-04
3
step 2412
H  7.429240310000e-01  3.564099304000e-01 -2.314220774000e-01  2.671808590875e-03  2.817270267949e-03 -1.780750778838e-03
O -6.941952450000e-02 -1.275737963000e-01  7.525995550000e-02 -2.209897384662e-04 -2.264375135718e-04  1.477672354889e-04
H -7.931676382000e-01  3.894069825000e-01 -2.414486849000e-01  6.985656230479e-04  8.732226080191e-04 -5.650558746784e-04
3
step 2413
H  7.543929606000e-01  3.686047977000e-01 -2.391299883000e-01  2.545627650858e-03  2.740528941210e-03 -1.732107201103e-03
O -7.036243670000e-02 -1.285633411000e-01  7.590565500000e-02 -2.084561874725e-04 -2.247823485758e-04  1.466849712589e-04
H -7.902706537000e-01  3.933416025000e-01 -2.439908420000e-01  6.259054114785e-04  9.242975114584e-04 -5.963532982069e-04
3
step 2414
H  7.652002205000e-01  3.803916553000e-01 -2.465793405000e-01  2.373829021683e-03  2.633197393108e-03 -1.664102088803e-03
O -7.124367560000e-02 -1.295408138000e-01  7.654356120000e-02 -1.931426189766e-04 -2.210270380620e-04  1.442739592072e-04
H -7.876904870000e-01  3.974952929000e-01 -2.466672325000e-01  5.547320276235e-04  9.726277725882e-04 -6.259645011692e-04
3
step 2415
H  7.751657807000e-01  3.916472894000e-01 -2.536921547000e-01  2.164831825513e-03  2.499893967270e-03 -1.579661522099e-03
O -7.205258240000e-02 -1.304974968000e-01  7.716816250000e-02 -1.756979682392e-04 -2.153727530125e-04  1.406631846274e-04
H -7.854163240000e-01  4.018528396000e-01 -2.494685103000e-01  4.869236844053e-04  1.016767286990e-03 -6.530006058550e-04
3
step 2416
H  7.841441551000e-01  4.022676401000e-01 -2.604025874000e-01  1.925992191742e-03  2.344730409331e-03 -1.481390941757e-03
O -7.278116730000e-02 -1.314254902000e-01  7.777447170000e-02 -1.566907798356e-04 -2.079922783199e-04  1.359635863911e-04
H -7.834295323000e-01  4.063927846000e-01 -2.523814874000e-01  4.241483091326e-04  1.055336248451e-03 -6.766118259936e-04
3
step 2417
H  7.920196858000e-01  4.121654744000e-01 -2.666554588000e-01  1.663619497855e-03  2.171290799062e-03 -1.371561714895e-03
O -7.342374660000e-02 -1.323175883000e-01  7.835794790000e-02 -1.366072878237e-04 -1.990320468952e-04  1.302692362732e-04
H -7.817047018000e-01  4.110878392000e-01 -2.553893814000e-01  3.678162607772e-04  1.087073190122e-03 -6.960196559387e-04
3
step 2418
H  7.987020985000e-01  4.212680957000e-01 -2.724048017000e-01  1.383063360684e-03  1.982657189272e-03 -1.252127174726e-03
O -7.397658550000e-02 -1.331671729000e-01  7.891442720000e-02 -1.158549765753e-04 -1.886166329892e-04  1.236601592767e-04
H -7.802108586000e-01  4.159055066000e-01 -2.584721919000e-01  3.190484196213e-04  1.110877321393e-03 -7.105431952246e-04
3
step 2419
H  8.041225484000e-01  4.295152416000e-01 -2.776125295000e-01  1.088835536603e-03  1.781461295000e-03 -1.124755189133e-03
O -7.443756630000e-02 -1.339681282000e-01  7.944006890000e-02 -9.476930933083e-05 -1.768542191431e-04  1.162057436205e-04
H -7.789127841000e-01  4.208088656000e-01 -2.616071779000e-01  2.786595395702e-04  1.125839706880e-03 -7.196185662964e-04
3
step 2420
H  8.082302425000e-01  4.368572450000e-01 -2.822472701000e-01  7.847429841820e-04  1.569947866264e-03 -9.908682531713e-04
O -7.480588950000e-02 -1.347147826000e-01  7.993131640000e-02 -7.362201090362e-05 -1.638419854314e-04  1.079681324425e-04
H -7.777723744000e-01  4.257574654000e-01 -2.647694049000e-01  2.471563146073e-04  1.131262483029e-03 -7.228110505920e-04
3
step 2421
H  8.109896498000e-01  4.432534865000e-01 -2.862833848000e-01  4.740190115748e-04  1.350040995404e-03 -8.516855379571e-04
O -7.508181520000e-02 -1.354018709000e-01  8.038487260000e-02 -5.262986233954e-05 -1.496708816162e-04  9.900522239489e-05
H -7.767499772000e-01  4.307082778000e-01 -2.679323276000e-01  2.247462420185e-04  1.126667616207e-03 -7.198207794732e-04
3
step 2422
H  8.123782715000e-01  4.486711365000e-01 -2.897001701000e-01  1.594463880435e-04  1.123409437084e-03 -7.082643636158e-04
O -7.526644110000e-02 -1.360245173000e-01  8.079768780000e-02 -3.196370127294e-05 -1.344296039425e-04  8.937326913037e-05
H -7.758056729000e-01  4.356166690000e-01 -2.710683874000e-01  2.113572458202e-04  1.111795321128e-03 -7.104820074317e-04
3
step 2423
H  8.123849277000e-01  4.530841786000e-01 -2.924812398000e-01 -1.565292488161e-04  8.915293822345e-04 -5.615400723662e-04
O -7.536152200000e-02 -1.365782328000e-01  8.116695710000e-02 -1.175724858345e-05 -1.182079137048e-04  7.912896712049e-05
H -7.749004396000e-01  4.404373374000e-01 -2.741495888000e-01  2.066650892190e-04  1.086593922312e-03 -6.947571286128e-04
3
step 2424
H  8.110085208000e-01  4.564727007000e-01 -2.946140754000e-01 -4.716949084956e-04  6.557441968279e-04 -4.123639634898e-04
O -7.536932600000e-02 -1.370589270000e-01  8.149012680000e-02  7.884394061304e-06 -1.010993387257e-04  6.833120035961e-05
H -7.739971952000e-01  4.451251971000e-01 -2.771480438000e-01  2.101240964970e-04  1.051203658924e-03 -6.727268856710e-04
3
step 2425
H  8.082572364000e-01  4.588224420000e-01 -2.960897400000e-01 -7.839727292431e-04  4.173232281652e-04 -2.615406020686e-04
O -7.529252760000e-02 -1.374629294000e-01  8.176490740000e-02  2.687665348449e-05 -8.320374227354e-05  5.704275192976e-05
H -7.730616930000e-01  4.496361737000e-01 -2.800364637000e-01  2.209976600592e-04  1.005939415433e-03 -6.445799615376e-04
3
step 2426
H  8.041481596000e-01  4.601245982000e-01 -2.969027557000e-01 -1.091328402070e-03  1.775183485039e-04 -1.098637198458e-04
O -7.513413470000e-02 -1.377870234000e-01  8.198929450000e-02  4.514771425096e-05 -6.462948515972e-05  4.533169359341e-05
H -7.720632966000e-01  4.539279366000e-01 -2.827886116000e-01  2.383902467774e-04  9.512686801076e-04 -6.105995040271e-04
3
step 2427
H  7.987072780000e-01  4.603758634000e-01 -2.970511316000e-01 -1.391681592297e-03 -6.237931847312e-05  4.184779706296e-05
O -7.489745050000e-02 -1.380284868000e-01  8.216159440000e-02  6.263078448634e-05 -4.549535014134e-05  3.327263368437e-05
H -7.709755960000e-01  4.579605024000e-01 -2.853796765000e-01  2.612804739556e-04  8.877854124434e-04 -5.711470586708e-04
3
step 2428
H  7.919698810000e-01  4.595787314000e-01 -2.965365555000e-01 -1.682820292188e-03 -3.009801525523e-04  1.927122794603e-04
O -7.458606740000e-02 -1.381851425000e-01  8.228045550000e-02  7.925719819440e-05 -2.593322968647e-05  2.094847695391e-05
H -7.697768926000e-01  4.616967381000e-01 -2.877865853000e-01  2.885449792428e-04  8.161939988528e-04 -5.266528507095e-04
3
step 2429
H  7.839813130000e-01  4.577420568000e-01 -2.953647517000e-01 -1.962310552268e-03 -5.367331807705e-04  3.417453471291e-04
O -7.420388940000e-02 -1.382554224000e-01  8.234490960000e-02  9.494913360801e-05 -6.090804597009e-06  8.452134135577e-06
H -7.684506066000e-01  4.651028243000e-01 -2.899882918000e-01  3.189834058772e-04  7.372892315581e-04 -4.776034433150e-04
3
step 2430
H  7.747981624000e-01  4.548819055000e-01 -2.935460222000e-01 -2.227406413770e-03 -7.678614796348e-04  4.878189158456e-04
O -7.375518990000e-02 -1.382384417000e-01  8.235441820000e-02  1.096125509495e-04  1.386563109543e-05 -4.111645072207e-06
H -7.669855438000e-01  4.681485830000e-01 -2.919659808000e-01  3.513409698558e-04  6.519367400163e-04 -4.245296929294e-04
3
step 2431
H  7.644898027000e-01  4.510226813000e-01 -2.910959630000e-01 -2.474959667385e-03 -9.922934817001e-04  6.296175486243e-04
O -7.324469570000e-02 -1.381340875000e-01  8.230892950000e-02  1.231305004442e-04  3.374766872139e-05 -1.662406877023e-05
H -7.653761044000e-01  4.708077696000e-01 -2.937032514000e-01  3.843249110676e-04  5.610607634171e-04 -3.679992482064e-04
3
step 2432
H  7.531403718000e-01  4.461985783000e-01 -2.880363870000e-01 -2.701322024100e-03 -1.207587736433e-03  7.655907890284e-04
O -7.267770380000e-02 -1.379431238000e-01  8.220894490000e-02  1.353558361008e-04  5.334091331209e-05 -2.894982078978e-05
H -7.636224068000e-01  4.730582939000e-01 -2.951862558000e-01  4.166224117264e-04  4.656301633344e-04 -3.086078879115e-04
3
step 2433
H  7.408511684000e-01  4.404553648000e-01 -2.843964578000e-01 -2.902250138356e-03 -1.410856724874e-03  8.939049916673e-04
O -7.206022860000e-02 -1.376673137000e-01  8.205559650000e-02  1.461044048775e-04  7.240071882942e-05 -4.093445520617e-05
H -7.617303395000e-01  4.748823897000e-01 -2.964038066000e-01  4.469146340012e-04  3.666491628217e-04 -2.469738391333e-04
3
step 2434
H  7.277434627000e-01  4.338525026000e-01 -2.802140344000e-01 -3.072817570038e-03 -1.598693467195e-03  1.012396930824e-03
O -7.139917850000e-02 -1.373095621000e-01  8.185073710000e-02  1.551485192537e-04  9.064793710911e-05 -5.240172685786e-05
H -7.597115618000e-01  4.762667546000e-01 -2.973474658000e-01  4.738916032861e-04  2.651491139891e-04 -1.837326805861e-04
3
step 2435
H  7.139616638000e-01  4.264655739000e-01 -2.755372101000e-01 -3.207347535491e-03 -1.767111102843e-03  1.118535700930e-03
O -7.070256040000e-02 -1.368740749000e-01  8.159704130000e-02  1.622115862701e-04  1.077653935974e-04 -6.315142010773e-05
H -7.575834254000e-01  4.772026473000e-01 -2.980116081000e-01  4.962689701630e-04  1.621807638222e-04 -1.195325978818e-04
3
step 2436
H  6.996767180000e-01  4.183889286000e-01 -2.704259913000e-01 -3.299388447949e-03 -1.911512529762e-03  1.209403275978e-03
O -6.997970300000e-02 -1.363665325000e-01  8.129811390000e-02  1.669653649120e-04  1.233960909368e-04 -7.295812837836e-05
H -7.553688286000e-01  4.776859603000e-01 -2.983934675000e-01  5.128051654736e-04  5.880817471393e-05 -5.503066271272e-05
3
step 2437
H  6.850894907000e-01  4.097383768000e-01 -2.649540062000e-01 -3.341764665096e-03 -2.026714251455e-03  1.281709031682e-03
O -6.924148570000e-02 -1.357942647000e-01  8.095860180000e-02  1.690318173758e-04  1.371450648035e-04 -8.157225063632e-05
H -7.530959879000e-01  4.777172638000e-01 -2.984931685000e-01  5.223215676983e-04 -4.389754698716e-05  9.110979386980e-06
3
step 2438
H  6.704337206000e-01  4.006536283000e-01 -2.592100567000e-01 -3.326740515866e-03 -2.107053526467e-03  1.331857232147e-03
O -6.850054530000e-02 -1.351664082000e-01  8.058429430000e-02  1.679920225754e-04  1.485868483980e-04 -8.872448014256e-05
H -7.507981153000e-01  4.773018232000e-01 -2.983137395000e-01  5.237249558511e-04 -1.448644127241e-04  7.222882985843e-05
3
step 2439
H  6.559779661000e-01  3.913000465000e-01 -2.532992365000e-01 -3.246341433512e-03 -2.146613208161e-03  1.356089705395e-03
O -6.777142690000e-02 -1.344940161000e-01  8.018219470000e-02  1.634049676418e-04  1.572807853917e-04 -9.413547674961e-05
H -7.485129938000e-01  4.764495894000e-01 -2.978611110000e-01  5.160343139920e-04 -2.430278161515e-04  1.336629875425e-04
3
step 2440
H  6.420257494000e-01  3.818691205000e-01 -2.473432343000e-01 -3.092878906273e-03 -2.139601428089e-03  1.350727019993e-03
O -6.707062680000e-02 -1.337900811000e-01  7.976053690000e-02  1.548391611594e-04  1.627961705859e-04 -9.753197063634e-05
H -7.462824203000e-01  4.751751439000e-01 -2.971440861000e-01  4.984089156296e-04 -3.373392226616e-04  1.927623230847e-04
3
step 2441
H  6.289129094000e-01  3.725768971000e-01 -2.414793417000e-01 -2.859724119451e-03 -2.080919057233e-03  1.312528307303e-03
O -6.641646580000e-02 -1.330694251000e-01  7.932871540000e-02  1.419197924709e-04  1.647487587196e-04 -9.867018426017e-05
H -7.441515345000e-01  4.734976131000e-01 -2.961742932000e-01  4.701766823837e-04 -4.267757502610e-04  2.488902247182e-04
3
step 2442
H  6.170009755000e-01  3.636594867000e-01 -2.358576075000e-01 -2.542346836000e-03 -1.966923044977e-03  1.239174743785e-03
O -6.582872010000e-02 -1.323484034000e-01  7.889709730000e-02  1.243921501327e-04  1.628490299641e-04 -9.736650853199e-05
H -7.421680146000e-01  4.714405295000e-01 -2.949661062000e-01  4.308634202866e-04 -5.103530644430e-04  3.014323461578e-04
3
step 2443
H  6.066654295000e-01  3.553648156000e-01 -2.306356147000e-01 -2.139560553949e-03 -1.796335619615e-03  1.129846154293e-03
O -6.532793940000e-02 -1.316443715000e-01  7.847668390000e-02  1.021980495177e-04  1.569593689231e-04 -9.353373736233e-05
H -7.403811499000e-01  4.690316333000e-01 -2.935365295000e-01  3.802182712720e-04 -5.871398454939e-04  3.498055063939e-04
3
step 2444
H  5.982781838000e-01  3.479401757000e-01 -2.259705893000e-01 -1.654804323462e-03 -1.571164509602e-03  9.858064191783e-04
O -6.493440900000e-02 -1.309748888000e-01  7.807860550000e-02  7.555506245985e-05  1.471524412431e-04 -8.721789187021e-05
H -7.388408138000e-01  4.663026067000e-01 -2.919050404000e-01  3.182329892037e-04 -6.562742624819e-04  3.934678830859e-04
3
step 2445
H  5.921846257000e-01  3.416159241000e-01 -2.220090543000e-01 -1.097175598252e-03 -1.297413075751e-03  8.108573134627e-04
O -6.466677480000e-02 -1.303566751000e-01  7.771346060000e-02  4.502080877544e-05  1.337572284455e-04 -7.862747039713e-05
H -7.375963678000e-01  4.632887315000e-01 -2.900933846000e-01  2.451534588686e-04 -7.169828150375e-04  4.319307875334e-04
3
step 2446
H  5.886770579000e-01  3.365868187000e-01 -2.188749674000e-01 -4.818614481618e-04 -9.853166608571e-04  6.114918740032e-04
O -6.454044250000e-02 -1.298044107000e-01  7.739055500000e-02  1.152033215524e-05  1.173757990317e-04 -6.814422699323e-05
H -7.366955335000e-01  4.600284585000e-01 -2.881253156000e-01  1.614800708011e-04 -7.686006424351e-04  4.647715046965e-04
3
step 2447
H  5.879679694000e-01  3.329936495000e-01 -2.166580326000e-01  1.703553222274e-04 -6.488781137312e-04  3.966025804340e-04
O -6.456596300000e-02 -1.293295470000e-01  7.711714650000e-02 -2.368441602443e-05  9.885604686653e-05 -5.630612147946e-05
H -7.361832936000e-01  4.565628878000e-01 -2.860262783000e-01  6.796170580900e-05 -8.105948906932e-04  4.916481124707e-04
3
step 2448
H  5.901677973000e-01  3.309086388000e-01 -2.154043914000e-01  8.346428726437e-04 -3.046403216704e-04  1.767046185091e-04
O -6.474769920000e-02 -1.289393447000e-01  7.689783340000e-02 -5.909117168455e-05  7.921619149408e-05 -4.375963904506e-05
H -7.361008166000e-01  4.529351331000e-01 -2.838230185000e-01 -3.441656109433e-05 -8.425909639929e-04  5.123161110909e-04
3
step 2449
H  5.952717331000e-01  3.303278137000e-01 -2.151117320000e-01  1.484537564920e-03  3.012519230759e-05 -3.721279203613e-05
O -6.508305600000e-02 -1.286363447000e-01  7.673421620000e-02 -9.310830713099e-05  5.953195600198e-05 -3.118833592369e-05
H -7.364844649000e-01  4.491895723000e-01 -2.815431204000e-01 -1.444550542304e-04 -8.643963580227e-04  5.266436857965e-04
3
step 2450
H  6.031586368000e-01  3.311722573000e-01 -2.157300318000e-01  2.094739768827e-03  3.394151508684e-04 -2.349548077244e-04
O -6.556246810000e-02 -1.284183945000e-01  7.662491160000e-02 -1.242296271999e-04  4.081194248942e-05 -1.923378344853e-05
H -7.373649088000e-01  4.453710036000e-01 -2.792144833000e-01 -2.607623569711e-04 -8.760241413545e-04  5.346267592299e-04
3
step 2451
H  6.136023086000e-01  3.332979559000e-01 -2.171677663000e-01  2.643647999365e-03  6.101975734553e-04 -4.082051088311e-04
O -6.617016030000e-02 -1.282792090000e-01  7.656590590000e-02 -1.511924171531e-04  2.389136935816e-05 -8.428035671183e-06
H -7.387663350000e-01  4.415236908000e-01 -2.768647273000e-01 -3.817809734952e-04 -8.777121491931e-04  5.364013697821e-04
3
step 2452
H  6.262925793000e-01  3.365119529000e-01 -2.193021388000e-01  3.115098654931e-03  8.334581533718e-04 -5.511954728400e-04
O -6.688551740000e-02 -1.282093268000e-01  7.655115980000e-02 -1.730852503949e-04  9.366929579557e-06  8.478938649083e-07
H -7.407057844000e-01  4.376903508000e-01 -2.745205610000e-01 -5.058148692373e-04 -8.699339172781e-04  5.322509212456e-04
3
step 2453
H  6.408618051000e-01  3.405913524000e-01 -2.219911484000e-01  3.499061535938e-03  1.004462854250e-03 -6.608785410525e-04
O -6.768478860000e-02 -1.281972412000e-01  7.657332560000e-02 -1.893898042446e-04 -2.419153054232e-06  8.374582059153e-06
H -7.431926021000e-01  4.339111035000e-01 -2.722071245000e-01 -6.310584786374e-04 -8.533993401118e-04  5.226069598881e-04
3
step 2454
H  6.569120447000e-01  3.453017713000e-01 -2.250853317000e-01  3.791369020494e-03  1.122352066677e-03 -7.366742956104e-04
O -6.854282310000e-02 -1.282304962000e-01  7.662444380000e-02 -1.999618170299e-04 -1.135370443852e-05  1.407845820131e-05
H -7.462280289000e-01  4.302224537000e-01 -2.699473503000e-01 -7.556272670401e-04 -8.290429828382e-04  5.080422310607e-04
3
step 2455
H  6.740391846000e-01  3.504127916000e-01 -2.284376120000e-01  3.992773166272e-03  1.189319258298e-03 -7.799498626943e-04
O -6.943460750000e-02 -1.282965948000e-01  7.669652290000e-02 -2.049697083107e-04 -1.750218627827e-05  1.800011759908e-05
H -7.498049187000e-01  4.266563432000e-01 -2.677613663000e-01 -8.775901164344e-04 -7.979996445224e-04  4.892556907935e-04
3
step 2456
H  6.918518646000e-01  3.557092247000e-01 -2.319104896000e-01  4.107686771442e-03  1.209643382985e-03 -7.934054404996e-04
O -7.033646490000e-02 -1.283836537000e-01  7.678195870000e-02 -2.048133196988e-04 -2.105069430231e-05  2.025762078707e-05
H -7.539076138000e-01  4.232393463000e-01 -2.656659887000e-01 -9.950052994511e-04 -7.615667797224e-04  4.670491341247e-04
3
step 2457
H  7.099845864000e-01  3.609980967000e-01 -2.353805166000e-01  4.142910960207e-03  1.188783003471e-03 -7.804994877810e-04
O -7.122688070000e-02 -1.284808045000e-01  7.687379260000e-02 -2.000415494871e-04 -2.225289318877e-05  2.101260391843e-05
H -7.585119763000e-01  4.199920512000e-01 -2.636743291000e-01 -1.105957778959e-03 -7.211574534590e-04  4.422979313741e-04
3
step 2458
H  7.281055050000e-01  3.661119855000e-01 -2.387404573000e-01  4.106538780387e-03  1.132648674971e-03 -7.449860305931e-04
O -7.208698150000e-02 -1.285783836000e-01  7.696583500000e-02 -1.912807657667e-04 -2.138832421041e-05  2.044348796446e-05
H -7.635855905000e-01  4.169286669000e-01 -2.617955434000e-01 -1.208599629673e-03 -6.782457082789e-04  4.159169328381e-04
3
step 2459
H  7.459199425000e-01  3.709096391000e-01 -2.418997143000e-01  4.007110957228e-03  1.047085833821e-03 -6.905840077728e-04
O -7.290073380000e-02 -1.286679687000e-01  7.705268880000e-02 -1.791788296065e-04 -1.873336091696e-05  1.872680149048e-05
H -7.690881477000e-01  4.140568823000e-01 -2.600347377000e-01 -1.301192196755e-03 -6.343085350421e-04  3.888241976751e-04
3
step 2460
H  7.631707915000e-01  3.752747876000e-01 -2.447835957000e-01  3.853025366752e-03  9.375478043556e-04 -6.207672001635e-04
O -7.365493340000e-02 -1.287423148000e-01  7.712970880000e-02 -1.643650894084e-04 -1.454345068782e-05  1.602592221167e-05
H -7.749720177000e-01  4.113779819000e-01 -2.583930342000e-01 -1.382147852160e-03 -5.907688721922e-04  3.619054358724e-04
3
step 2461
H  7.796368622000e-01  3.791138997000e-01 -2.473319023000e-01  3.652164634032e-03  8.089188635213e-04 -5.386505171293e-04
O -7.433905410000e-02 -1.287952350000e-01  7.719292780000e-02 -1.474244220341e-04 -9.044475487423e-06  1.248574260230e-05
H -7.811829988000e-01  4.088872027000e-01 -2.568677883000e-01 -1.450068816388e-03 -5.489439394158e-04  3.359816545026e-04
3
step 2462
H  7.951300261000e-01  3.823534465000e-01 -2.494971998000e-01  3.411693778314e-03  6.654464159488e-04 -4.469460415408e-04
O -7.494500980000e-02 -1.288214609000e-01  7.723896860000e-02 -1.288823586768e-04 -2.430832033087e-06  8.231481428214e-06
H -7.876612292000e-01  4.065743025000e-01 -2.554529377000e-01 -1.503780408147e-03 -5.100021831221e-04  3.117822663616e-04
3
step 2463
H  8.094917929000e-01  3.849370649000e-01 -2.512430221000e-01  3.137982180981e-03  5.107468540122e-04 -3.479656444040e-04
O -7.546687330000e-02 -1.288165067000e-01  7.726495960000e-02 -1.091985894297e-04  5.132081565240e-06  3.370064197600e-06
H -7.943422279000e-01  4.044242935000e-01 -2.541394549000e-01 -1.542356491271e-03 -4.749312106744e-04  2.899249682985e-04
3
step 2464
H  8.225897709000e-01  3.868228722000e-01 -2.525421654000e-01  2.836610679789e-03  3.478560494149e-04 -2.436519627224e-04
O -7.590058100000e-02 -1.287765513000e-01  7.726845930000e-02 -8.876640561969e-05  1.350310736390e-05 -2.007134221709e-06
H -8.011580285000e-01  4.024182911000e-01 -2.529158724000e-01 -1.565135921279e-03 -4.445175590166e-04  2.709030154716e-04
3
step 2465
H  8.343143065000e-01  3.879810715000e-01 -2.533751631000e-01  2.512430932822e-03  1.793022839552e-04 -1.356241189293e-04
O -7.624364730000e-02 -1.286983442000e-01  7.724739560000e-02 -6.791605951434e-05  2.255985606394e-05 -7.821003032432e-06
H -8.080383646000e-01  4.005344248000e-01 -2.517688463000e-01 -1.571729356215e-03 -4.193381194230e-04  2.550797178292e-04
3
step 2466
H  8.445754637000e-01  3.883919044000e-01 -2.537289802000e-01  2.169652638294e-03  7.186740774487e-06 -2.522879756378e-05
O -7.649489850000e-02 -1.285791353000e-01  7.720001950000e-02 -4.692043696830e-05  3.219362859796e-05 -1.400151864276e-05
H -8.149118628000e-01  3.987487617000e-01 -2.506837297000e-01 -1.562016280900e-03 -3.997624047281e-04  2.426896788592e-04
3
step 2467
H  8.533004269000e-01  3.880439610000e-01 -2.535959344000e-01  1.811943470952e-03 -1.667367311882e-04  8.640893860055e-05
O -7.665423700000e-02 -1.284166253000e-01  7.712487160000e-02 -2.600196881916e-05  4.230495023490e-05 -2.048488320223e-05
H -8.217072021000e-01  3.970361979000e-01 -2.496451260000e-01 -1.536135256935e-03 -3.859625050284e-04  2.338448567723e-04
3
step 2468
H  8.604313553000e-01  3.869328305000e-01 -2.529728359000e-01  1.442532858147e-03 -3.409865106203e-04  1.983376618940e-04
O -7.672243560000e-02 -1.282089346000e-01  7.702076110000e-02 -5.340241650602e-06  5.279996860926e-05 -2.721117509294e-05
H -8.283542216000e-01  3.953712945000e-01 -2.486374083000e-01 -1.494466479648e-03 -3.779303935969e-04  2.285451235799e-04
3
step 2469
H  8.659236930000e-01  3.850600682000e-01 -2.518603281000e-01  1.064315422219e-03 -5.142841950126e-04  3.097355516006e-04
O -7.670096820000e-02 -1.279545852000e-01  7.688675300000e-02  1.492000747809e-05  6.358754654671e-05 -3.412241995524e-05
H -8.347849271000e-01  3.937290178000e-01 -2.476451813000e-01 -1.437608452138e-03 -3.755000369508e-04  2.266919370407e-04
3
step 2470
H  8.697449295000e-01  3.824324503000e-01 -2.502624128000e-01  6.799551039618e-04 -6.854899525970e-04  4.198690307173e-04
O -7.659187420000e-02 -1.276524949000e-01  7.672216380000e-02  3.466080488188e-05  7.457671142995e-05 -4.116089940715e-05
H -8.409343954000e-01  3.920853819000e-01 -2.466536804000e-01 -1.366353886810e-03 -3.783708076610e-04  2.281028216808e-04
3
step 2471
H  8.718738204000e-01  3.790615066000e-01 -2.481861529000e-01  2.919866348951e-04 -8.535440360319e-04  5.280553749378e-04
O -7.639765960000e-02 -1.273019819000e-01  7.652656370000e-02  5.378301408584e-05  8.567447481795e-05 -4.826769288607e-05
H -8.467415690000e-01  3.904179838000e-01 -2.456491071000e-01 -1.281664962393e-03 -3.861307965996e-04  2.325257812477e-04
3
step 2472
H  8.723000360000e-01  3.749632870000e-01 -2.456415243000e-01 -9.708186599097e-05 -1.017411939197e-03  6.336275751529e-04
O -7.612123170000e-02 -1.269027777000e-01  7.629978460000e-02  7.219828624328e-05  9.678389890069e-05 -5.538141604481e-05
H -8.521499443000e-01  3.887064420000e-01 -2.446189020000e-01 -1.184648672382e-03 -3.982802440342e-04  2.396538665793e-04
3
step 2473
H  8.710242798000e-01  3.701583738000e-01 -2.426414268000e-01 -4.846598686264e-04 -1.176027666155e-03  7.358979886292e-04
O -7.576586940000e-02 -1.264550488000e-01  7.604193390000e-02  8.982062658737e-05  1.078018521240e-04 -6.243673516721e-05
H -8.571081512000e-01  3.869327270000e-01 -2.435519524000e-01 -1.076531501542e-03 -4.142524246591e-04  2.491382396045e-04
3
step 2474
H  8.680588913000e-01  3.646721452000e-01 -2.392018539000e-01 -8.679671406706e-04 -1.328241877396e-03  8.341249110743e-04
O -7.533523240000e-02 -1.259594290000e-01  7.575341540000e-02  1.065585139774e-04  1.186168928031e-04 -6.936296843330e-05
H -8.615704185000e-01  3.850814164000e-01 -2.424387518000e-01 -9.586419325746e-04 -4.334311043541e-04  2.605989792559e-04
3
step 2475
H  8.634289033000e-01  3.585352412000e-01 -2.353421957000e-01 -1.243919165531e-03 -1.472769199594e-03  9.274785818949e-04
O -7.483340080000e-02 -1.254170602000e-01  7.543495490000e-02  1.223068421746e-04  1.291069013298e-04 -7.608255462460e-05
H -8.654970015000e-01  3.831398732000e-01 -2.412715120000e-01 -8.323966873233e-04 -4.551657571407e-04  2.736345572123e-04
3
step 2476
H  8.571736470000e-01  3.517842879000e-01 -2.310857068000e-01 -1.608997242862e-03 -1.608127746315e-03  1.015002202462e-03
O -7.426495400000e-02 -1.248296449000e-01  7.508763480000e-02  1.369376955061e-04  1.391360450090e-04 -8.250898244802e-05
H -8.688545264000e-01  3.810983678000e-01 -2.400442401000e-01 -6.992842345023e-04 -4.787823939485e-04  2.878286350187e-04
3
step 2477
H  8.493489465000e-01  3.444628931000e-01 -2.264601499000e-01 -1.959117441741e-03 -1.732581404212e-03  1.095574563381e-03
O -7.363509120000e-02 -1.241995134000e-01  7.471293810000e-02  1.502915633473e-04  1.485516880437e-04 -8.854477928317e-05
H -8.716162735000e-01  3.789501610000e-01 -2.387527912000e-01 -5.608563927147e-04 -5.035921561504e-04  3.027553756224e-04
3
step 2478
H  8.400298706000e-01  3.366228751000e-01 -2.214985912000e-01 -2.289492825282e-03 -1.844080395936e-03  1.167871419291e-03
O -7.294978780000e-02 -1.235297039000e-01  7.431280030000e-02  1.621682849132e-04  1.571810546830e-04 -9.407917995760e-05
H -8.737624489000e-01  3.766915512000e-01 -2.373948989000e-01 -4.187232017594e-04 -5.288968190809e-04  3.179828670730e-04
3
step 2479
H  8.293141326000e-01  3.283257788000e-01 -2.162403815000e-01 -2.594489476940e-03 -1.940198707318e-03  1.230324907279e-03
O -7.221599470000e-02 -1.228240589000e-01  7.388967330000e-02  1.723176832210e-04  1.648273347065e-04 -9.898549840516e-05
H -8.752804219000e-01  3.743219091000e-01 -2.359701978000e-01 -2.745491743861e-04 -5.539903416152e-04  3.330740870098e-04
3
step 2480
H  8.173261027000e-01  3.196446521000e-01 -2.107323070000e-01 -2.867496367889e-03 -2.018079189313e-03  1.281087582018e-03
O -7.144187630000e-02 -1.220873386000e-01  7.344660140000e-02  1.804311955352e-04  1.712660860239e-04 -1.031187461600e-04
H -8.761649642000e-01  3.718437119000e-01 -2.344802458000e-01 -1.300513993196e-04 -5.781583587849e-04  3.475865369796e-04
3
step 2481
H  8.042213456000e-01  3.106660420000e-01 -2.050298850000e-01 -3.100830083067e-03 -2.074395202499e-03  1.318007101411e-03
O -7.063708370000e-02 -1.213253496000e-01  7.298730540000e-02  1.861357161924e-04  1.762424006371e-04 -1.063138496552e-04
H -8.764184712000e-01  3.692625812000e-01 -2.329285497000e-01  1.300255227250e-05 -6.006757591323e-04  3.610706882866e-04
3
step 2482
H  7.901914672000e-01  3.014921070000e-01 -1.991987365000e-01 -3.285710475875e-03 -2.105345689505e-03  1.338622469204e-03
O -6.981304630000e-02 -1.205450828000e-01  7.251627390000e-02  1.889921475849e-04  1.794701092815e-04 -1.083853713900e-04
H -8.760511819000e-01  3.665873394000e-01 -2.313206011000e-01  1.527958381018e-04 -6.208020953982e-04  3.730670382501e-04
3
step 2483
H  7.754688652000e-01  2.922426565000e-01 -1.933159143000e-01 -3.412355069066e-03 -2.106704464415e-03  1.340195501953e-03
O -6.898325780000e-02 -1.197548489000e-01  7.203885050000e-02  1.885014110636e-04  1.806344874748e-04 -1.091296628848e-04
H -8.750813907000e-01  3.638300879000e-01 -2.296639277000e-01  2.874652107945e-04 -6.377758661638e-04  3.831024533810e-04
3
step 2484
H  7.603307497000e-01  2.830568312000e-01 -1.874710005000e-01 -3.470251108675e-03 -2.073949175212e-03  1.319793857187e-03
O -6.816351480000e-02 -1.189643928000e-01  7.156130580000e-02  1.841214511656e-04  1.794002319626e-04 -1.083303544861e-04
H -8.735356414000e-01  3.610063127000e-01 -2.279681615000e-01  4.151065168392e-04 -6.508083815308e-04  3.906862291552e-04
3
step 2485
H  7.451015131000e-01  2.740940146000e-01 -1.817667084000e-01 -3.448675829382e-03 -2.002501218792e-03  1.274445351349e-03
O -6.737205420000e-02 -1.181849596000e-01  7.109087700000e-02  1.752992739559e-04  1.754267645232e-04 -1.057682105056e-04
H -8.714488911000e-01  3.581350167000e-01 -2.262451243000e-01  5.337841449033e-04 -6.590782321757e-04  3.953064926138e-04
3
step 2486
H  7.301521978000e-01  2.655334136000e-01 -1.763186287000e-01 -3.337541692615e-03 -1.888111549527e-03  1.201386258084e-03
O -6.662951200000e-02 -1.174292744000e-01  7.063575310000e-02  1.615227779242e-04  1.683927921058e-04 -1.012366341499e-04
H -8.688646218000e-01  3.552388739000e-01 -2.245089273000e-01  6.415463342095e-04 -6.617279296438e-04  3.964279305616e-04
3
step 2487
H  7.158954699000e-01  2.575715940000e-01 -1.712536595000e-01 -3.128622386778e-03 -1.727417042041e-03  1.098420298566e-03
O -6.595860630000e-02 -1.167113938000e-01  7.020497900000e-02  1.423961439642e-04  1.580313620512e-04 -9.456369530857e-05
H -8.658348698000e-01  3.523443910000e-01 -2.227760766000e-01  7.364484913535e-04 -6.578645828618e-04  3.934920683998e-04
3
step 2488
H  7.027743584000e-01  2.504171929000e-01 -1.667066107000e-01 -2.817138014370e-03 -1.518655509838e-03  9.643816272992e-04
O -6.538343690000e-02 -1.160463791000e-01  6.980824840000e-02  1.177375822565e-04  1.441747221696e-04 -8.564074062462e-05
H -8.624201340000e-01  3.494820555000e-01 -2.210655706000e-01  8.165863348349e-04 -6.465666358339e-04  3.859213474841e-04
3
step 2489
H  6.912433570000e-01  2.442821965000e-01 -1.628145825000e-01 -2.403535160344e-03 -1.262463189859e-03  7.996523228786e-04
O -6.492831240000e-02 -1.154497547000e-01  6.945555700000e-02  8.768908724295e-05  1.268047071922e-04 -7.445514491619e-05
H -8.586891147000e-01  3.466864383000e-01 -2.193989696000e-01  8.801409196921e-04 -6.268986960598e-04  3.731282763243e-04
3
step 2490
H  6.817415869000e-01  2.393696741000e-01 -1.597090411000e-01 -1.895121368628e-03 -9.626019520469e-04  6.066349318099e-04
O -6.461609030000e-02 -1.149367409000e-01  6.915670890000e-02  5.281614090953e-05  1.060999072182e-04 -6.112124790034e-05
H -8.547182276000e-01  3.439962123000e-01 -2.178004127000e-01  9.254373203714e-04 -5.979362775144e-04  3.545308349519e-04
3
step 2491
H  6.746595952000e-01  2.358586929000e-01 -1.575060627000e-01 -1.307067824737e-03 -6.263988586200e-04  3.900397256819e-04
O -6.446613080000e-02 -1.145212994000e-01  6.892069930000e-02  1.416627223762e-05  8.246602391836e-05 -4.590043929404e-05
H -8.505908301000e-01  3.414540384000e-01 -2.162965535000e-01  9.510207886390e-04 -5.588032922263e-04  3.295758328775e-04
3
step 2492
H  6.703037434000e-01  2.338882048000e-01 -1.562958951000e-01 -6.622671007874e-04 -2.646684291603e-04  1.568383646459e-04
O -6.449212450000e-02 -1.142151001000e-01  6.875504500000e-02 -2.674580778205e-05  5.653466835374e-05 -2.920057829352e-05
H -8.463960682000e-01  3.391062560000e-01 -2.149163721000e-01  9.557483295750e-04 -5.087216779394e-04  2.977699555196e-04
3
step 2493
H  6.688642514000e-01  2.335426417000e-01 -1.561336070000e-01  1.027040715597e-05  1.090239075600e-04 -8.420829444112e-05
O -6.470017710000e-02 -1.140265778000e-01  6.866517190000e-02 -6.804598643998e-05  2.912108352981e-05 -1.154880052327e-05
H -8.422273011000e-01  3.370023346000e-01 -2.136908386000e-01  9.388931084440e-04 -4.470726681836e-04  2.587182476966e-04
3
step 2494
H  6.703936173000e-01  2.348422474000e-01 -1.570327822000e-01  6.783840230426e-04  4.797117252644e-04 -3.234205584888e-04
O -6.508757900000e-02 -1.139602683000e-01  6.865398410000e-02 -1.076950317495e-04  1.143621151028e-06  6.460591693468e-06
H -8.381800351000e-01  3.351940281000e-01 -2.126523895000e-01  9.002586532816e-04 -3.734694396378e-04  2.121697827765e-04
3
step 2495
H  6.748006306000e-01  2.377404863000e-01 -1.589637843000e-01  1.310492631577e-03  8.327188900089e-04 -5.512935808335e-04
O -6.564259100000e-02 -1.140165702000e-01  6.872170700000e-02 -1.437304364440e-04 -2.647834316766e-05  2.423227212296e-05
H -8.343493491000e-01  3.337341913000e-01 -2.118341907000e-01  8.402864249174e-04 -2.878322004213e-04  1.580651282417e-04
3
step 2496
H  6.818614304000e-01  2.421291748000e-01 -1.618570228000e-01  1.879172907072e-03  1.155281128116e-03 -7.595485379004e-04
O -6.634533030000e-02 -1.141919741000e-01  6.886603500000e-02 -1.744975017727e-04 -5.292221163530e-05  4.123344620693e-05
H -8.308268861000e-01  3.326752762000e-01 -2.112691987000e-01  7.601446777773e-04 -1.904603437855e-04  9.658211540065e-05
3
step 2497
H  6.912448312000e-01  2.478500800000e-01 -1.656104151000e-01  2.363751543944e-03  1.437721361123e-03 -9.418970697945e-04
O -6.716957760000e-02 -1.144796801000e-01  6.908253120000e-02 -1.988161983392e-04 -7.753248499366e-05  5.703971219554e-05
H -8.276975016000e-01  3.320675175000e-01 -2.109890233000e-01  6.617821466177e-04 -8.209218231926e-05  2.817395719837e-05
3
step 2498
H  7.025460649000e-01  2.547103367000e-01 -1.700993427000e-01  2.751451282221e-03  1.673970825936e-03 -1.094383211546e-03
O -6.808512410000e-02 -1.148704426000e-01  6.936517610000e-02 -2.160536169101e-04 -9.985101815753e-05  7.135495426522e-05
H -8.250357860000e-01  3.319569067000e-01 -2.110226550000e-01  5.479293538398e-04  3.606024366565e-05 -4.640812519054e-05
3
step 2499
H  7.153221349000e-01  2.624986054000e-01 -1.751871055000e-01  3.037134833937e-03  1.861454881380e-03 -1.215314091741e-03
O -6.906021210000e-02 -1.153534529000e-01  6.970694170000e-02 -2.261042581383e-04 -1.196091991842e-04  8.400639209433e-05
H -8.229027006000e-01  3.323830723000e-01 -2.113951299000e-01  4.220399357627e-04  1.623083549520e-04 -1.261122603073e-04
3
step 2500
H  7.291233182000e-01  2.709994910000e-01 -1.807342708000e-01  3.222058738369e-03  2.000529624320e-03 -1.304898679538e-03
O -7.006370930000e-02 -1.159171146000e-01  7.010029630000e-02 -2.293036172614e-04 -1.366944024926e-04  9.492269477681e-05
H -8.213426137000e-01  3.333772290000e-01 -2.121262337000e-01  2.881707033959e-04  2.945215903956e-04 -2.096067840137e-04
3
step 2501
H  7.435176139000e-01  2.800047701000e-01 -1.866059672000e-01  3.312157146383e-03  2.093703749697e-03 -1.364745456014e-03
O -7.106679420000e-02 -1.165496335000e-01  7.053758790000e-02 -2.263085465622e-04 -1.511059744254e-04  1.041050873484e-04
H -8.203809865000e-01  3.349603615000e-01 -2.132293496000e-01  1.508058589516e-04  4.302006439504e-04 -2.953255063914e-04
